MAPbI3 tetragonal T=150 K               
   1.00000000000000     
    24.7458992004000002    0.0000000000000000    0.0000000000000000
     0.0000000000000000   24.7459068297999991    0.0000000000000000
     0.0000000000000000    0.0000000000000000   25.4960002898999996
   C    H    I    N    Pb
    64   384   192    64    64
Direct
  0.1151424506490724  0.1113785095453604  0.0887366775104848
  0.1151424506490725  0.1113785095453604  0.5887367075104840
  0.1151424506490724  0.6113784995453608  0.0887366775104848
  0.1151424506490726  0.6113784995453608  0.5887367075104843
  0.6151424706490713  0.1113785095453601  0.0887366775104849
  0.6151424706490715  0.1113785095453604  0.5887367075104843
  0.6151424706490713  0.6113784995453611  0.0887366775104849
  0.6151424706490713  0.6113784995453611  0.5887367075104846
  0.3651424706490723  0.3613784995453610  0.0887366775104848
  0.3651424706490723  0.3613784995453609  0.5887367075104843
  0.3651424706490723  0.8613784995453608  0.0887366775104848
  0.3651424706490723  0.8613784995453608  0.5887367075104840
  0.8651424706490715  0.3613784995453611  0.0887366775104848
  0.8651424706490716  0.3613784995453613  0.5887367075104841
  0.8651424706490713  0.8613784995453608  0.0887366775104848
  0.8651424706490716  0.8613784995453608  0.5887367075104843
  0.1049967296008930  0.3816022284269170  0.0989912260964496
  0.1049967296008935  0.3816022284269168  0.5989912460964503
  0.1049967296008931  0.8816022584269183  0.0989912260964498
  0.1049967296008931  0.8816022584269184  0.5989912460964503
  0.6049967496008940  0.3816022284269165  0.0989912260964497
  0.6049967496008940  0.3816022284269169  0.5989912460964503
  0.6049967496008940  0.8816022584269183  0.0989912260964497
  0.6049967496008940  0.8816022584269183  0.5989912460964503
  0.3549967496008921  0.1316022584269172  0.0989912260964496
  0.3549967496008922  0.1316022584269173  0.5989912460964503
  0.3549967496008921  0.6316022584269183  0.0989912260964497
  0.3549967496008922  0.6316022584269184  0.5989912460964500
  0.8549967496008940  0.1316022584269171  0.0989912260964497
  0.8549967496008939  0.1316022584269174  0.5989912460964503
  0.8549967496008940  0.6316022584269183  0.0989912260964497
  0.8549967496008940  0.6316022584269190  0.5989912460964503
  0.1309976475311912  0.1261356334654661  0.3893860514189358
  0.1309976475311913  0.1261356334654661  0.8893860514189363
  0.1309976475311913  0.6261356434654659  0.3893860514189357
  0.1309976475311913  0.6261356434654659  0.8893860514189365
  0.6309976275311929  0.1261356334654661  0.3893860514189358
  0.6309976275311929  0.1261356334654662  0.8893860514189365
  0.6309976275311928  0.6261356434654659  0.3893860514189358
  0.6309976275311928  0.6261356434654660  0.8893860514189363
  0.3809976275311912  0.3761356434654654  0.3893860514189357
  0.3809976275311912  0.3761356434654655  0.8893860514189363
  0.3809976275311910  0.8761356434654661  0.3893860514189358
  0.3809976275311910  0.8761356434654659  0.8893860514189363
  0.8809976275311929  0.3761356434654656  0.3893860514189358
  0.8809976275311928  0.3761356434654651  0.8893860514189363
  0.8809976275311929  0.8761356434654660  0.3893860514189358
  0.8809976275311928  0.8761356434654659  0.8893860514189363
  0.1385985743383177  0.3566217834103136  0.3930596786131965
  0.1385985743383178  0.3566217834103138  0.8930596486131976
  0.1385985743383177  0.8566217834103133  0.3930596786131965
  0.1385985743383178  0.8566217834103131  0.8930596486131976
  0.6385986043383158  0.3566217834103136  0.3930596786131965
  0.6385986043383159  0.3566217834103137  0.8930596486131976
  0.6385986043383159  0.8566217834103134  0.3930596786131965
  0.6385986043383159  0.8566217834103131  0.8930596486131976
  0.3885985743383187  0.1066217794103130  0.3930596786131965
  0.3885985743383186  0.1066217794103130  0.8930596486131978
  0.3885985743383186  0.6066217834103133  0.3930596786131965
  0.3885985743383186  0.6066217834103130  0.8930596486131976
  0.8885986043383159  0.1066217794103130  0.3930596786131965
  0.8885986043383159  0.1066217794103130  0.8930596486131978
  0.8885986043383159  0.6066217834103131  0.3930596786131965
  0.8885986043383159  0.6066217834103131  0.8930596486131976
  0.3718388155465018  0.1581483051113895  0.0686095672701050
  0.3718388155465022  0.1581483051113897  0.5686095472701028
  0.3718388155465020  0.6581483051113896  0.0686095672701041
  0.3718388155465022  0.6581483051113899  0.5686095472701029
  0.8718387855465060  0.1581483051113893  0.0686095672701040
  0.8718387855465062  0.1581483051113899  0.5686095472701029
  0.8718387855465061  0.6581483051113900  0.0686095672701047
  0.8718387855465057  0.6581483051113900  0.5686095472701029
  0.1218387855465040  0.4081483051113889  0.0686095672701049
  0.1218387855465041  0.4081483051113890  0.5686095472701029
  0.1218387855465040  0.9081483051113897  0.0686095672701045
  0.1218387855465044  0.9081483051113898  0.5686095472701028
  0.6218387855465063  0.4081483051113888  0.0686095672701042
  0.6218387855465060  0.4081483051113892  0.5686095472701028
  0.6218387855465057  0.9081483051113897  0.0686095672701048
  0.6218387855465060  0.9081483051113900  0.5686095472701028
  0.0691512900469656  0.3996556230255495  0.1172650526842311
  0.0691512900469655  0.3996556230255498  0.6172650676842302
  0.0691512900469653  0.8996556530255468  0.1172650526842312
  0.0691512900469655  0.8996556530255468  0.6172650676842298
  0.5691512600469646  0.3996556230255496  0.1172650526842312
  0.5691512600469649  0.3996556230255497  0.6172650676842304
  0.5691512600469649  0.8996556530255465  0.1172650526842308
  0.5691512600469647  0.8996556530255474  0.6172650676842305
  0.3191512900469659  0.1496556530255490  0.1172650526842310
  0.3191512900469656  0.1496556530255499  0.6172650676842304
  0.3191512900469656  0.6496556530255477  0.1172650526842314
  0.3191512900469656  0.6496556530255467  0.6172650676842303
  0.8191512600469646  0.1496556530255493  0.1172650526842312
  0.8191512600469650  0.1496556530255495  0.6172650676842303
  0.8191512600469650  0.6496556530255467  0.1172650526842312
  0.8191512600469646  0.6496556530255473  0.6172650676842304
  0.0955896528721864  0.3420972792389245  0.0822464374185555
  0.0955896528721864  0.3420972792389247  0.5822464474185551
  0.0955896528721863  0.8420973092389238  0.0822464374185556
  0.0955896528721861  0.8420973092389237  0.5822464474185551
  0.5955896628721860  0.3420972792389243  0.0822464374185551
  0.5955896628721858  0.3420972792389245  0.5822464474185547
  0.5955896628721860  0.8420973092389239  0.0822464374185555
  0.5955896628721861  0.8420973092389237  0.5822464474185549
  0.3455896628721874  0.0920973092389250  0.0822464374185555
  0.3455896628721877  0.0920973092389256  0.5822464474185549
  0.3455896628721876  0.5920973092389241  0.0822464374185552
  0.3455896628721871  0.5920973092389241  0.5822464474185548
  0.8455896628721860  0.0920973092389257  0.0822464374185553
  0.8455896628721860  0.0920973092389258  0.5822464474185550
  0.8455896628721860  0.5920973092389237  0.0822464374185555
  0.8455896628721860  0.5920973092389239  0.5822464474185550
  0.3828944492032001  0.1258787176480252  0.1774100152754932
  0.3828944492032001  0.1258787176480257  0.6774100152754924
  0.3828944492031998  0.6258786856480258  0.1774100152754927
  0.3828944492032001  0.6258786856480257  0.6774100152754924
  0.8828944492032015  0.1258787176480259  0.1774100152754930
  0.8828944492032017  0.1258787176480256  0.6774100152754927
  0.8828944492032014  0.6258786856480256  0.1774100152754927
  0.8828944492032017  0.6258786856480257  0.6774100152754926
  0.1328944562032007  0.3758787156480254  0.1774100152754926
  0.1328944562032015  0.3758787156480257  0.6774100152754921
  0.1328944562032005  0.8758786856480261  0.1774100152754923
  0.1328944562032013  0.8758786856480256  0.6774100152754926
  0.6328944492032015  0.3758787156480256  0.1774100152754928
  0.6328944492032019  0.3758787156480255  0.6774100152754927
  0.6328944492032011  0.8758786856480257  0.1774100152754926
  0.6328944492032013  0.8758786856480256  0.6774100152754921
  0.4278476807080870  0.1541192603204461  0.1366405787373256
  0.4278476807080872  0.1541192603204461  0.6366405887373281
  0.4278476807080865  0.6541192523204460  0.1366405787373258
  0.4278476807080875  0.6541192523204459  0.6366405887373277
  0.9278476807080844  0.1541192603204465  0.1366405787373255
  0.9278476807080841  0.1541192603204460  0.6366405887373283
  0.9278476807080842  0.6541192523204459  0.1366405787373260
  0.9278476807080838  0.6541192523204461  0.6366405887373278
  0.1778476907080866  0.4041192523204463  0.1366405787373255
  0.1778476907080863  0.4041192523204464  0.6366405887373282
  0.1778476907080857  0.9041192523204461  0.1366405787373253
  0.1778476907080866  0.9041192523204458  0.6366405887373280
  0.6778476807080841  0.4041192523204458  0.1366405787373257
  0.6778476807080843  0.4041192523204459  0.6366405887373280
  0.6778476807080842  0.9041192523204460  0.1366405787373260
  0.6778476807080843  0.9041192523204462  0.6366405887373282
  0.4192119510142007  0.0868261074882409  0.1365383947376703
  0.4192119510142006  0.0868261074882412  0.6365383727376717
  0.4192119510142006  0.5868261074882392  0.1365383947376706
  0.4192119510142012  0.5868261074882392  0.6365383727376710
  0.9192119510142012  0.0868261074882406  0.1365383947376708
  0.9192119510142013  0.0868261074882408  0.6365383727376704
  0.9192119510142002  0.5868261074882388  0.1365383947376708
  0.9192119510142012  0.5868261074882389  0.6365383727376707
  0.1692119490142009  0.3368261074882395  0.1365383947376706
  0.1692119490142005  0.3368261074882395  0.6365383727376717
  0.1692119490142008  0.8368261074882394  0.1365383947376705
  0.1692119490142004  0.8368261074882394  0.6365383727376706
  0.6692119510142011  0.3368261074882393  0.1365383947376702
  0.6692119510142012  0.3368261074882392  0.6365383727376707
  0.6692119510142012  0.8368261074882388  0.1365383947376702
  0.6692119510142012  0.8368261074882380  0.6365383727376709
  0.4211661904122472  0.4092924979498164  0.1287536705470140
  0.4211661904122475  0.4092924979498162  0.6287536605470131
  0.4211661904122467  0.9092924979498174  0.1287536705470141
  0.4211661904122475  0.9092924979498175  0.6287536605470133
  0.9211661904122472  0.4092924979498163  0.1287536705470142
  0.9211661904122476  0.4092924979498156  0.6287536605470129
  0.9211661904122472  0.9092924979498180  0.1287536705470139
  0.9211661904122476  0.9092924979498177  0.6287536605470130
  0.1711661904122473  0.1592924979498161  0.1287536705470141
  0.1711661904122477  0.1592924979498165  0.6287536605470131
  0.1711661904122473  0.6592924979498180  0.1287536705470140
  0.1711661904122475  0.6592924979498178  0.6287536605470133
  0.6711661904122476  0.1592924979498163  0.1287536705470139
  0.6711661904122476  0.1592924979498166  0.6287536605470130
  0.6711661904122476  0.6592924979498177  0.1287536705470139
  0.6711661904122476  0.6592924979498176  0.6287536605470136
  0.4460370199301853  0.3492870609447786  0.1100066835777355
  0.4460370199301855  0.3492870609447789  0.6100066635777350
  0.4460370199301855  0.8492870609447793  0.1100066835777355
  0.4460370199301852  0.8492870609447797  0.6100066635777349
  0.9460369899301861  0.3492870609447790  0.1100066835777347
  0.9460369899301861  0.3492870609447785  0.6100066635777349
  0.9460369899301859  0.8492870609447793  0.1100066835777353
  0.9460369899301865  0.8492870609447791  0.6100066635777346
  0.1960369899301862  0.0992870609447795  0.1100066835777349
  0.1960369899301861  0.0992870609447797  0.6100066635777349
  0.1960369899301858  0.5992870609447796  0.1100066835777357
  0.1960369899301864  0.5992870609447793  0.6100066635777346
  0.6960369899301860  0.0992870609447796  0.1100066835777355
  0.6960369899301867  0.0992870609447795  0.6100066635777345
  0.6960369899301866  0.5992870609447795  0.1100066835777351
  0.6960369899301864  0.5992870609447796  0.6100066635777349
  0.4042830494849586  0.3543809121549713  0.1619505120857604
  0.4042830494849583  0.3543809121549711  0.6619505420857607
  0.4042830494849584  0.8543809121549710  0.1619505120857601
  0.4042830494849586  0.8543809121549700  0.6619505420857607
  0.9042830194849584  0.3543809121549715  0.1619505120857602
  0.9042830194849579  0.3543809121549708  0.6619505420857604
  0.9042830194849582  0.8543809121549708  0.1619505120857602
  0.9042830194849579  0.8543809121549706  0.6619505420857607
  0.1542830094849584  0.1043809121549708  0.1619505120857602
  0.1542830094849586  0.1043809121549706  0.6619505420857607
  0.1542830094849582  0.6043809121549709  0.1619505120857602
  0.1542830094849581  0.6043809121549704  0.6619505420857608
  0.6542830194849580  0.1043809121549705  0.1619505120857596
  0.6542830194849579  0.1043809121549703  0.6619505420857601
  0.6542830194849584  0.6043809121549707  0.1619505120857598
  0.6542830194849579  0.6043809121549703  0.6619505420857610
  0.0776352929717021  0.1198836760028424  0.1100272365713114
  0.0776352929717017  0.1198836760028429  0.6100272535713109
  0.0776352929717015  0.6198836360028438  0.1100272365713117
  0.0776352929717019  0.6198836360028439  0.6100272535713109
  0.5776352929716990  0.1198836760028420  0.1100272365713111
  0.5776352929716992  0.1198836760028427  0.6100272535713108
  0.5776352929716994  0.6198836360028436  0.1100272365713114
  0.5776352929716994  0.6198836360028441  0.6100272535713109
  0.3276352929717015  0.3698836660028434  0.1100272365713115
  0.3276352929717014  0.3698836660028431  0.6100272535713108
  0.3276352929717015  0.8698836360028432  0.1100272365713114
  0.3276352929717018  0.8698836360028438  0.6100272535713112
  0.8276352929716999  0.3698836660028432  0.1100272365713113
  0.8276352929716996  0.3698836660028431  0.6100272535713108
  0.8276352929716991  0.8698836360028440  0.1100272365713115
  0.8276352929716995  0.8698836360028439  0.6100272535713109
  0.3651274121661148  0.3196194263800726  0.0747594097204375
  0.3651274121661155  0.3196194263800728  0.5747594297204379
  0.3651274121661149  0.8196194563800737  0.0747594097204373
  0.3651274121661149  0.8196194563800738  0.5747594297204379
  0.8651273821661155  0.3196194263800732  0.0747594097204373
  0.8651273821661156  0.3196194263800729  0.5747594297204379
  0.8651273821661155  0.8196194563800737  0.0747594097204376
  0.8651273821661163  0.8196194563800737  0.5747594297204377
  0.1151273721661153  0.0696194463800738  0.0747594097204371
  0.1151273721661151  0.0696194463800733  0.5747594297204377
  0.1151273721661154  0.5696194563800737  0.0747594097204377
  0.1151273721661154  0.5696194563800734  0.5747594297204378
  0.6151273821661158  0.0696194463800736  0.0747594097204376
  0.6151273821661160  0.0696194463800736  0.5747594297204378
  0.6151273821661158  0.5696194563800743  0.0747594097204373
  0.6151273821661156  0.5696194563800744  0.5747594297204377
  0.1194758089758136  0.1393470279266632  0.0558566368356088
  0.1194758089758132  0.1393470279266635  0.5558566368356104
  0.1194758089758134  0.6393470279266634  0.0558566368356093
  0.1194758089758132  0.6393470279266632  0.5558566368356102
  0.6194757939758134  0.1393470279266636  0.0558566368356090
  0.6194757939758130  0.1393470279266631  0.5558566368356102
  0.6194757939758134  0.6393470279266634  0.0558566368356090
  0.6194757939758130  0.6393470279266636  0.5558566368356108
  0.3694757939758147  0.3893470279266635  0.0558566368356089
  0.3694757939758147  0.3893470279266634  0.5558566368356106
  0.3694757939758146  0.8893470279266634  0.0558566368356090
  0.3694757939758146  0.8893470279266634  0.5558566368356105
  0.8694757939758134  0.3893470279266637  0.0558566368356088
  0.8694757939758133  0.3893470279266639  0.5558566368356102
  0.8694757939758134  0.8893470279266633  0.0558566368356090
  0.8694757939758130  0.8893470279266634  0.5558566368356106
  0.3010369692171622  0.3933205066486409  0.3663032988643935
  0.3010369692171622  0.3933205066486408  0.8663033288643905
  0.3010369692171622  0.8933204766486400  0.3663032988643931
  0.3010369692171620  0.8933204766486399  0.8663033288643914
  0.8010369692171614  0.3933205066486410  0.3663032988643935
  0.8010369692171619  0.3933205066486407  0.8663033288643914
  0.8010369692171616  0.8933204766486400  0.3663032988643932
  0.8010369692171616  0.8933204766486399  0.8663033288643912
  0.0510369732171630  0.1433204766486409  0.3663032988643933
  0.0510369732171626  0.1433204766486404  0.8663033288643910
  0.0510369732171627  0.6433204766486399  0.3663032988643929
  0.0510369732171628  0.6433204766486401  0.8663033288643909
  0.5510369692171615  0.1433204766486407  0.3663032988643927
  0.5510369692171611  0.1433204766486404  0.8663033288643903
  0.5510369692171613  0.6433204766486398  0.3663032988643932
  0.5510369692171614  0.6433204766486400  0.8663033288643910
  0.3071441437512346  0.3349498066257326  0.3997696604305030
  0.3071441437512344  0.3349498066257328  0.8997696304305017
  0.3071441437512344  0.8349498066257313  0.3997696604305029
  0.3071441437512345  0.8349498066257314  0.8997696304305015
  0.8071441437512336  0.3349498066257323  0.3997696604305029
  0.8071441437512336  0.3349498066257326  0.8997696304305020
  0.8071441437512338  0.8349498066257314  0.3997696604305030
  0.8071441437512334  0.8349498066257314  0.8997696304305017
  0.0571441427512346  0.0849498066257319  0.3997696604305028
  0.0571441427512345  0.0849498066257320  0.8997696304305015
  0.0571441427512345  0.5849498066257314  0.3997696604305029
  0.0571441427512345  0.5849498066257312  0.8997696304305017
  0.5571441437512342  0.0849498066257316  0.3997696604305029
  0.5571441437512336  0.0849498066257320  0.8997696304305017
  0.5571441437512337  0.5849498066257314  0.3997696604305028
  0.5571441437512337  0.5849498066257315  0.8997696304305017
  0.3274136707446090  0.3386306380497266  0.3373582114319156
  0.3274136707446090  0.3386306380497262  0.8373581814319176
  0.3274136707446090  0.8386306080497274  0.3373582114319160
  0.3274136707446089  0.8386306080497277  0.8373581814319173
  0.8274137007446084  0.3386306380497267  0.3373582114319161
  0.8274137007446080  0.3386306380497269  0.8373581814319173
  0.8274137007446088  0.8386306080497278  0.3373582114319160
  0.8274137007446081  0.8386306080497274  0.8373581814319174
  0.0774137007446086  0.0886306080497279  0.3373582114319159
  0.0774137007446082  0.0886306080497279  0.8373581814319171
  0.0774137007446084  0.5886306080497274  0.3373582114319160
  0.0774137007446081  0.5886306080497274  0.8373581814319172
  0.5774137007446080  0.0886306080497277  0.3373582114319158
  0.5774137007446082  0.0886306080497273  0.8373581814319173
  0.5774137007446081  0.5886306080497274  0.3373582114319158
  0.5774137007446076  0.5886306080497274  0.8373581814319173
  0.1553843055820150  0.0901193444981470  0.3975657361849029
  0.1553843055820147  0.0901193444981473  0.8975657361849028
  0.1553843055820150  0.5901193544981457  0.3975657361849029
  0.1553843055820146  0.5901193544981457  0.8975657361849029
  0.6553843055820131  0.0901193444981471  0.3975657361849031
  0.6553843055820125  0.0901193444981470  0.8975657361849028
  0.6553843055820133  0.5901193544981455  0.3975657361849027
  0.6553843055820131  0.5901193544981458  0.8975657361849025
  0.4053843055820155  0.3401193544981477  0.3975657361849030
  0.4053843055820153  0.3401193544981473  0.8975657361849029
  0.4053843055820157  0.8401193544981458  0.3975657361849029
  0.4053843055820153  0.8401193544981457  0.8975657361849028
  0.9053843055820133  0.3401193544981475  0.3975657361849028
  0.9053843055820133  0.3401193544981477  0.8975657361849029
  0.9053843055820131  0.8401193544981457  0.3975657361849029
  0.9053843055820131  0.8401193544981457  0.8975657361849024
  0.1270946782687194  0.1512942113146909  0.4247340144915464
  0.1270946782687193  0.1512942113146910  0.9247340144915458
  0.1270946782687195  0.6512941813146895  0.4247340144915462
  0.1270946782687192  0.6512941813146897  0.9247340144915458
  0.6270946782687179  0.1512942113146909  0.4247340144915461
  0.6270946782687179  0.1512942113146909  0.9247340144915458
  0.6270946782687182  0.6512941813146894  0.4247340144915460
  0.6270946782687180  0.6512941813146896  0.9247340144915456
  0.3770946782687195  0.4012942113146916  0.4247340144915462
  0.3770946782687196  0.4012942113146915  0.9247340144915460
  0.3770946782687195  0.9012942413146893  0.4247340144915466
  0.3770946782687196  0.9012942413146897  0.9247340144915459
  0.8770946782687178  0.4012942113146913  0.4247340144915461
  0.8770946782687179  0.4012942113146917  0.9247340144915458
  0.8770946782687183  0.9012942413146893  0.4247340144915459
  0.8770946782687179  0.9012942413146892  0.9247340144915458
  0.3995198125746600  0.3993808128379062  0.3575725457997703
  0.3995198125746596  0.3993808128379065  0.8575725757997715
  0.3995198125746600  0.8993808128379064  0.3575725457997700
  0.3995198125746596  0.8993808128379064  0.8575725757997711
  0.8995198125746601  0.3993808128379056  0.3575725457997702
  0.8995198125746600  0.3993808128379064  0.8575725757997714
  0.8995198125746600  0.8993808128379064  0.3575725457997699
  0.8995198125746602  0.8993808128379068  0.8575725757997713
  0.1495198125746599  0.1493808128379054  0.3575725457997700
  0.1495198125746597  0.1493808128379058  0.8575725757997715
  0.1495198125746603  0.6493808128379064  0.3575725457997700
  0.1495198125746602  0.6493808128379068  0.8575725757997712
  0.6495198125746602  0.1493808128379055  0.3575725457997699
  0.6495198125746598  0.1493808128379059  0.8575725757997713
  0.6495198125746603  0.6493808128379062  0.3575725457997698
  0.6495198125746600  0.6493808128379068  0.8575725757997715
  0.3897583166033406  0.1706666061421684  0.3386597433772212
  0.3897583166033406  0.1706666061421686  0.8386597433772227
  0.3897583166033405  0.6706666061421680  0.3386597433772214
  0.3897583166033404  0.6706666061421678  0.8386597433772227
  0.8897583166033417  0.1706666061421687  0.3386597433772212
  0.8897583166033415  0.1706666061421685  0.8386597433772228
  0.8897583166033425  0.6706666061421678  0.3386597433772214
  0.8897583166033415  0.6706666061421678  0.8386597433772226
  0.1397583166033406  0.4206666061421681  0.3386597433772210
  0.1397583166033405  0.4206666061421682  0.8386597433772227
  0.1397583166033405  0.9206666061421682  0.3386597433772213
  0.1397583166033403  0.9206666061421680  0.8386597433772227
  0.6397583166033415  0.4206666061421685  0.3386597433772212
  0.6397583166033421  0.4206666061421683  0.8386597433772225
  0.6397583166033413  0.9206666061421678  0.3386597433772215
  0.6397583166033418  0.9206666061421679  0.8386597433772227
  0.3745059286018156  0.1905921736802299  0.4003169413449714
  0.3745059286018155  0.1905921736802306  0.9003169713449741
  0.3745059286018154  0.6905921936802289  0.4003169413449716
  0.3745059286018155  0.6905921936802295  0.9003169713449746
  0.8745059286018122  0.1905921736802300  0.4003169413449716
  0.8745059286018125  0.1905921736802300  0.9003169713449740
  0.8745059286018123  0.6905921936802294  0.4003169413449715
  0.8745059286018125  0.6905921936802294  0.9003169713449741
  0.1245059276018145  0.4405921936802308  0.4003169413449716
  0.1245059276018147  0.4405921936802307  0.9003169713449742
  0.1245059276018147  0.9405921936802289  0.4003169413449715
  0.1245059276018147  0.9405921936802297  0.9003169713449740
  0.6245059286018123  0.4405921936802305  0.4003169413449715
  0.6245059286018125  0.4405921936802308  0.9003169713449741
  0.6245059286018123  0.9405921936802289  0.4003169413449713
  0.6245059286018125  0.9405921936802298  0.9003169713449745
  0.3281054279759544  0.1603096088438151  0.3636162425918841
  0.3281054279759547  0.1603096088438151  0.8636162425918805
  0.3281054279759546  0.6603096188438148  0.3636162425918841
  0.3281054279759545  0.6603096188438148  0.8636162425918805
  0.8281054279759517  0.1603096088438154  0.3636162425918842
  0.8281054279759524  0.1603096088438150  0.8636162425918805
  0.8281054279759523  0.6603096188438148  0.3636162425918842
  0.8281054279759521  0.6603096188438148  0.8636162425918804
  0.0781054279759538  0.4103096188438158  0.3636162425918841
  0.0781054279759537  0.4103096188438159  0.8636162425918805
  0.0781054279759537  0.9103096188438148  0.3636162425918842
  0.0781054279759539  0.9103096188438148  0.8636162425918805
  0.5781054279759522  0.4103096188438162  0.3636162425918842
  0.5781054279759519  0.4103096188438156  0.8636162425918805
  0.5781054279759514  0.9103096188438147  0.3636162425918842
  0.5781054279759519  0.9103096188438148  0.8636162425918805
  0.1093645228099046  0.3404819060147164  0.4212854352438778
  0.1093645228099045  0.3404819060147166  0.9212854352438777
  0.1093645228099048  0.8404819060147189  0.4212854352438781
  0.1093645228099042  0.8404819060147188  0.9212854352438776
  0.6093645478099057  0.3404819060147168  0.4212854352438776
  0.6093645478099046  0.3404819060147170  0.9212854352438777
  0.6093645478099046  0.8404819060147188  0.4212854352438778
  0.6093645478099050  0.8404819060147188  0.9212854352438781
  0.3593645178099056  0.0904819030147174  0.4212854352438778
  0.3593645178099051  0.0904819030147174  0.9212854352438777
  0.3593645178099056  0.5904819060147189  0.4212854352438781
  0.3593645178099051  0.5904819060147189  0.9212854352438777
  0.8593645478099051  0.0904819030147176  0.4212854352438778
  0.8593645478099051  0.0904819030147175  0.9212854352438781
  0.8593645478099050  0.5904819060147186  0.4212854352438777
  0.8593645478099048  0.5904819060147187  0.9212854352438781
  0.1777586700662365  0.3636163188311844  0.4121157761500859
  0.1777586700662366  0.3636163188311844  0.9121157761500843
  0.1777586700662366  0.8636163188311852  0.4121157761500858
  0.1777586700662366  0.8636163188311852  0.9121157761500842
  0.6777586700662370  0.3636163188311844  0.4121157761500857
  0.6777586700662368  0.3636163188311848  0.9121157761500842
  0.6777586700662369  0.8636163188311853  0.4121157761500859
  0.6777586700662371  0.8636163188311855  0.9121157761500843
  0.4277586700662357  0.1136163198311840  0.4121157761500855
  0.4277586700662356  0.1136163198311839  0.9121157761500844
  0.4277586700662361  0.6136163188311854  0.4121157761500856
  0.4277586700662360  0.6136163188311853  0.9121157761500842
  0.9277586700662371  0.1136163198311838  0.4121157761500860
  0.9277586700662371  0.1136163198311843  0.9121157761500843
  0.9277586700662372  0.6136163188311852  0.4121157761500856
  0.9277586700662371  0.6136163188311853  0.9121157761500841
  0.3930229125885948  0.0789611687552643  0.3597489548071920
  0.3930229125885947  0.0789611687552643  0.8597489548071937
  0.3930229125885949  0.5789611817552642  0.3597489548071927
  0.3930229125885953  0.5789611817552643  0.8597489548071935
  0.8930229125885941  0.0789611687552643  0.3597489548071924
  0.8930229125885947  0.0789611687552648  0.8597489548071935
  0.8930229125885938  0.5789611817552641  0.3597489548071922
  0.8930229125885945  0.5789611817552646  0.8597489548071937
  0.1430229125885949  0.3289611817552655  0.3597489548071920
  0.1430229125885950  0.3289611817552652  0.8597489548071936
  0.1430229125885948  0.8289611817552646  0.3597489548071926
  0.1430229125885952  0.8289611817552643  0.8597489548071933
  0.6430229125885936  0.3289611817552653  0.3597489548071921
  0.6430229125885946  0.3289611817552652  0.8597489548071939
  0.6430229125885938  0.8289611817552642  0.3597489548071922
  0.6430229125885946  0.8289611817552645  0.8597489548071942
  0.9960990667608031  0.0191331598209707  0.1324507875881557
  0.9960990667608032  0.0191331598209708  0.6324507875881570
  0.9960990667608032  0.5191331617209706  0.1324507875881557
  0.9960990667608031  0.5191331617209706  0.6324507875881570
  0.4960990667608013  0.0191331598209707  0.1324507875881557
  0.4960990667608012  0.0191331598209708  0.6324507875881570
  0.4960990667608012  0.5191331617209706  0.1324507875881557
  0.4960990667608012  0.5191331617209706  0.6324507875881570
  0.2460990667608019  0.2691331617209718  0.1324507875881557
  0.2460990667608019  0.2691331617209718  0.6324507875881570
  0.2460990667608019  0.7691331617209712  0.1324507875881557
  0.2460990667608019  0.7691331617209712  0.6324507875881570
  0.7460990667608028  0.2691331617209718  0.1324507875881557
  0.7460990667608027  0.2691331617209718  0.6324507875881570
  0.7460990667608026  0.7691331617209712  0.1324507875881557
  0.7460990667608028  0.7691331617209712  0.6324507875881570
  0.9887087960029268  0.9879551837146069  0.3734489365475569
  0.9887087960029268  0.9879551837146069  0.8734489365475590
  0.9887087960029268  0.4879551937146077  0.3734489365475567
  0.9887087960029268  0.4879551937146077  0.8734489365475590
  0.4887087960029265  0.9879551837146069  0.3734489365475569
  0.4887087960029265  0.9879551837146069  0.8734489365475588
  0.4887087960029265  0.4879551937146077  0.3734489365475569
  0.4887087960029264  0.4879551937146077  0.8734489365475588
  0.2387087960029270  0.2379551937146080  0.3734489365475567
  0.2387087960029270  0.2379551937146080  0.8734489365475590
  0.2387087960029270  0.7379551937146077  0.3734489365475569
  0.2387087960029270  0.7379551937146077  0.8734489365475590
  0.7387087960029256  0.2379551937146080  0.3734489365475569
  0.7387087960029256  0.2379551937146080  0.8734489365475590
  0.7387087960029256  0.7379551937146077  0.3734489365475569
  0.7387087960029256  0.7379551937146077  0.8734489365475590
  0.2549904318559103  0.9989059009713039  0.3734875752913847
  0.2549904318559103  0.9989059009713039  0.8734875752913854
  0.2549904318559103  0.4989059059713029  0.3734875752913847
  0.2549904318559103  0.4989059059713029  0.8734875752913854
  0.7549904318559090  0.9989059009713041  0.3734875752913847
  0.7549904318559090  0.9989059009713041  0.8734875752913854