POSCAR_x2BA4                            
   1.00000000000000     
     8.5239700216734029    0.0000000000000000    0.0000000000000000
     0.0000000000000000    8.5600113359039440    0.0000000000000000
     0.0000000000000000    0.0000000000000000   73.4349975586000028
   I    Pb   C    H    N 
    32    10    24    96    12
Direct
  0.4199120799538330  0.4339177437643860  0.3207066048849860
  0.4301055227717706  0.4466272090314370  0.6829754552445046
  0.5424845489860229  0.9672352272406219  0.3200655504588383
  0.5676512447895389  0.9514598776355804  0.6759596323148812
  0.2296301603357669  0.7694545300404916  0.2803562001800313
  0.2053495208856225  0.7276129722651629  0.5445049886684672
  0.2366080615550561  0.7949388949216997  0.7216204761604441
  0.0577840011323930  0.0712933458681322  0.3313386072625215
  0.0699787556337432  0.0853857232431769  0.6717475534816533
  0.9058655473055497  0.6027556631494093  0.3276388954906603
  0.9262303692821137  0.5919937043672818  0.6730622209085771
  0.8163031489214504  0.2616981396677529  0.2807649650753913
  0.7852360589863969  0.2722722216141749  0.5444340771378827
  0.8014947090452844  0.2513238004482001  0.7213518159127443
  0.4390020644243101  0.4581224067198972  0.5868612253470177
  0.5375753905767274  0.9607379283651465  0.5935142669215926
  0.2872986998756190  0.7352794897143835  0.6338736004266999
  0.0325383265169632  0.0507579742841440  0.5848056437874760
  0.9334457798117183  0.5647995538607873  0.5949860254099582
  0.7038052188366996  0.2902183357038078  0.6339856655001791
  0.2954630858376194  0.7141147040792055  0.3682425970513626
  0.7128564174811919  0.2542514569724884  0.3683657558739040
  0.4303868710240730  0.4057566308601595  0.4146403147943997
  0.5649173798500934  0.9207019459233915  0.4104506144496230
  0.0411805484984215  0.0149205619719363  0.4205838080158159
  0.9668711056574624  0.5167091037106190  0.4097142326167021
  0.3160265408787872  0.7441963136772343  0.4576138756361086
  0.6864675150255268  0.2255362843103899  0.4574624967183986
  0.3943749602808849  0.3836451874791840  0.5026757450356983
  0.5544837667043868  0.9137752794629227  0.5081147388162358
  0.0389375512149433  0.0277432968012318  0.4938970038015442
  0.9130345394257958  0.5539457889999675  0.4958107898132666
  0.2445374894094061  0.7522384147535283  0.3243495934252911
  0.2530967250242908  0.7662814361681231  0.6779821788431591
  0.7535390051642841  0.2717009243978129  0.3239319774047587
  0.7527243889374496  0.2705614170033280  0.6779581301810008
  0.2397377996239126  0.7570224871455955  0.5898447859393146
  0.7384131682616958  0.2602580562729433  0.5901166999822365
  0.2623291181098150  0.7277800513068436  0.4136860950099708
  0.7472520618044268  0.2345126980729004  0.4136532477644062
  0.2451118884453436  0.7189724688184048  0.5006119422079701
  0.7328523090179173  0.2364862859017592  0.5012935864357696
  0.3104125930579560  0.2252867286095144  0.5493359643430485
  0.7016854710488811  0.7763854275318949  0.5545262335710319
  0.6330552246898018  0.6571434834837149  0.2477722170355940
  0.7240214880902966  0.7404699673211490  0.2788478179589697
  0.6433427607681059  0.6830968681838201  0.2272403377991771
  0.7386631524197229  0.7687069123367279  0.2584790230623494
  0.3609631103984373  0.3156567391899314  0.2405801470790323
  0.3219279855031805  0.2748949454443794  0.2741893083528689
  0.3129861696651948  0.2677237132964659  0.2213424967620471
  0.2718507804133321  0.2244821787837716  0.2552116581736927
  0.3423177189433081  0.3362634745899538  0.7628772461510788
  0.3075015187266003  0.2997284231817964  0.7291621273740222
  0.2923776062379444  0.2860493157692671  0.7819663882859643
  0.2551749486215053  0.2466460308332395  0.7479593435151400
  0.6392866226901768  0.6457329550175532  0.7521086717755304
  0.7258211153017292  0.7338383685049512  0.7209562361088164
  0.6570311429327168  0.6662812567957611  0.7726577297671716
  0.7451777074305724  0.7567899353764050  0.7413676450023724
  0.1965214585635510  0.2264389389392192  0.6247005920733164
  0.8293406259079384  0.8564047448453107  0.6322006633620816
  0.1990153956162637  0.1851448509581161  0.3780191700457750
  0.8236228294788271  0.7540905208067036  0.3736631337004766
  0.1546340943373146  0.3215939536236285  0.4564293072466861
  0.8063001095826281  0.7026339086624658  0.4494981046177833
  0.0781755481466849  0.1838486264620256  0.5404521116371165
  0.2125109066999528  0.1755471260098722  0.5236495617381843
  0.1959018310783562  0.0266071375933195  0.5386420809152049
  0.4283063953381010  0.1874592450357800  0.5451948599735597
  0.2994678248855464  0.3524241450422018  0.5478031658671488
  0.2862508251972169  0.1910236031958718  0.5634557580702210
  0.7467095308325241  0.7273166023504165  0.5269192758240063
  0.9074691458051971  0.7113727563032604  0.5403362468257652
  0.7712350400447511  0.5705194995105963  0.5406554313986069
  0.7471657038330103  0.7360987066058723  0.5676997302299994
  0.7224874430521576  0.9022889926276618  0.5528991469812207
  0.5757517452267107  0.7509170048409419  0.5533831975929318
  0.5661379820981157  0.6020407946705679  0.2197809349442622
  0.6082187951459403  0.8032802556689754  0.2236094744839034
  0.5105380186067253  0.6722952212671525  0.2524070927149336
  0.6036446876657854  0.7622509585206124  0.2837346742398146
  0.7069724990136045  0.8914404662271500  0.2553588327907138
  0.8083864812015247  0.9650095616848698  0.2864634322227954
  0.8184380311986396  0.8292888579213857  0.3031524954194835
  0.8625204227794233  0.7530751761517565  0.2542640213625771
  0.9490277971535241  0.8248492528504450  0.2859119200035709
  0.7642440787332162  0.6651810333023069  0.2222778522458948
  0.6660024125216163  0.5355173383394043  0.2511262527166251
  0.7569223010928370  0.6198584052733166  0.2825045875061054
  0.3780631083459531  0.3344125079881255  0.2109685698208070
  0.3358590631216722  0.1424571203982459  0.2189849620999381
  0.4885356583755978  0.2978528184818799  0.2424709673561466
  0.4472282548445769  0.2509168934081594  0.2767204004943928
  0.2924900748161227  0.0975600599288417  0.2535241337262186
  0.2444890558307771  0.0685214952052462  0.2874435730815107
  0.2665630165519211  0.2246650764666879  0.3014912448822868
  0.1440695271721736  0.2434631570218652  0.2535919743025623
  0.1100711580224700  0.2133566822645600  0.2873864034324253
  0.1866264915451004  0.2880858591796034  0.2190966913988164
  0.3396875914920709  0.4420182681003090  0.2425546677747053
  0.3017225985415280  0.4007682226718579  0.2764167064192087
  0.3561688460573541  0.3517718276402512  0.7925284312054937
  0.1657309606405114  0.3057764706582435  0.7840626360699869
  0.3212497284781419  0.4628775955069006  0.7610696384415981
  0.2850396500097405  0.4253302441182310  0.7270082959352608
  0.1270934466585313  0.2645698220286595  0.7494039807210943
  0.0996919618174496  0.2322153369132683  0.7153907385835939
  0.2582771631593914  0.2510408782190222  0.7016608904096694
  0.2764207295695391  0.1196608962126636  0.7494602878301763
  0.2387350083020784  0.0926724077461106  0.7154162684599992
  0.3154309789157118  0.1606066851721458  0.7841570570303222
  0.4700836841082572  0.3187054024687462  0.7611481645824065
  0.4337961402271162  0.2787289090267373  0.7269412783354195
  0.5801556693866126  0.5855367490299215  0.7802079343485615
  0.7789742381266954  0.6438002292574609  0.7769969313658774
  0.6673730635248075  0.5240660485248176  0.7482322659839499
  0.7563436149616213  0.6138615277115450  0.7167813759455474
  0.8694697896433350  0.7371844461419353  0.7451677475831231
  0.9500834283588597  0.8212532695091312  0.7139028074864963
  0.8178693278333549  0.8273106543159174  0.6967133535855107
  0.7174385757234027  0.8795353452349178  0.7449436764147916
  0.8085416876842119  0.9594416029158962  0.7137820592368224
  0.6267069631402115  0.7864421506343836  0.7768375463166700
  0.5159605116577942  0.6658086708552002  0.7480577642582559
  0.6048346702780802  0.7583632309208636  0.7164699605296629
  0.2677700430214392  0.4355658772424864  0.6377350091423960
  0.2509061824666270  0.2808574655828394  0.6519492575665616
  0.4062920213776228  0.2965347974371569  0.6377626604920503
  0.2214850682110793  0.1012875395170519  0.6263680079295246
  0.0705232563561859  0.2488742148607397  0.6265204279332344
  0.2355228474127294  0.2667281920318516  0.6112516973790635
  0.6000655457374706  0.7584893786789865  0.6307122925307145
  0.7423573546056256  0.6497828562606437  0.6208241138345973
  0.7275363891178475  0.6560267850328237  0.6436203376390457
  0.9478900872809487  0.8093942420743140  0.6343023883199693
  0.8225328477883055  0.9175317952631622  0.6190787235888969
  0.7969978071877534  0.9348837088052734  0.6433951792710587
  0.2697882111248922  0.4077957024615075  0.3681321543363727
  0.4108478136459087  0.2723249034288980  0.3668360397850667
  0.2604359457848878  0.2687507145905797  0.3519475634368094
  0.2264434941495493  0.0630686860862719  0.3746373238677139
  0.2338926352034825  0.2116201786460850  0.3920613130165878
  0.0732043024891078  0.2076642782291306  0.3760909125069376
  0.5887559465067808  0.7992278576363209  0.3659029610247276
  0.7071261524784828  0.9559914157784275  0.3639509519810673
  0.7175476628559240  0.8098702406510326  0.3486027588629337
  0.9405221560289153  0.7896972490049532  0.3689207181347630
  0.8059416942803094  0.7873617347939929  0.3879373525306379
  0.8094088970988682  0.6273139187818281  0.3720760537959145
  0.2454635909795762  0.1162443410925559  0.4677978309114014
  0.2358402508290217  0.1131872336147783  0.4449409159375148
  0.3802503875189467  0.2156296869661491  0.4554631136584104
  0.1682087639047974  0.3855712080075725  0.4435684625733689
  0.0336783553431559  0.2788908684424832  0.4578419599137029
  0.1858852958237615  0.3958642283004909  0.4680488218337264
  0.7525502009835798  0.9241458137779053  0.4609276405510632
  0.6067581363425217  0.7932999262827338  0.4626733121060972
  0.7653351993632044  0.7778404507604778  0.4763569859660571
  0.7713076089723793  0.5813248668637517  0.4522545408022670
  0.7675777106088778  0.7384531489686973  0.4358714741951688
  0.9340958704653747  0.7152826345992807  0.4507777363899482
  0.1924954081282371  0.1483786273407239  0.5372825059554049
  0.7862519639045360  0.6916736771453067  0.5397038924167850
  0.8308487951189441  0.8468897693595018  0.2892021984677924
  0.2305735109311514  0.1898742749221882  0.2885167219856255
  0.2212045583245301  0.2137335436854035  0.7145080899146093
  0.8317557215084577  0.8419854950785556  0.7106985299298910
  0.2849772754402353  0.3148273260140027  0.6389115238379938
  0.7168193684729769  0.7229074297176455  0.6318514135305671
  0.2894965454039019  0.2892465773415562  0.3655076577401368
  0.7024828042514866  0.8343324966139664  0.3623736917489715
  0.2619698686537384  0.1839626324723345  0.4561608917802500
  0.7290627945116088  0.8060117723400845  0.4632050752371611
 
  0.00000000E+00  0.00000000E+00  0.00000000E+00
  0.00000000E+00  0.00000000E+00  0.00000000E+00
  0.00000000E+00  0.00000000E+00  0.00000000E+00
  0.00000000E+00  0.00000000E+00  0.00000000E+00
  0.00000000E+00  0.00000000E+00  0.00000000E+00
  0.00000000E+00  0.00000000E+00  0.00000000E+00
  0.00000000E+00  0.00000000E+00  0.00000000E+00
  0.00000000E+00  0.00000000E+00  0.00000000E+00
  0.00000000E+00  0.00000000E+00  0.00000000E+00
  0.00000000E+00  0.00000000E+00  0.00000000E+00
  0.00000000E+00  0.00000000E+00  0.00000000E+00
  0.00000000E+00  0.00000000E+00  0.00000000E+00
  0.00000000E+00  0.00000000E+00  0.00000000E+00
  0.00000000E+00  0.00000000E+00  0.00000000E+00
  0.00000000E+00  0.00000000E+00  0.00000000E+00
  0.00000000E+00  0.00000000E+00  0.00000000E+00
  0.00000000E+00  0.00000000E+00  0.00000000E+00
  0.00000000E+00  0.00000000E+00  0.00000000E+00
  0.00000000E+00  0.00000000E+00  0.00000000E+00
  0.00000000E+00  0.00000000E+00  0.00000000E+00
  0.00000000E+00  0.00000000E+00  0.00000000E+00
  0.00000000E+00  0.00000000E+00  0.00000000E+00
  0.00000000E+00  0.00000000E+00  0.00000000E+00
  0.00000000E+00  0.00000000E+00  0.00000000E+00
  0.00000000E+00  0.00000000E+00  0.00000000E+00
  0.00000000E+00  0.00000000E+00  0.00000000E+00
  0.00000000E+00  0.00000000E+00  0.00000000E+00
  0.00000000E+00  0.00000000E+00  0.00000000E+00
  0.00000000E+00  0.00000000E+00  0.00000000E+00
  0.00000000E+00  0.00000000E+00  0.00000000E+00
  0.00000000E+00  0.00000000E+00  0.00000000E+00
  0.00000000E+00  0.00000000E+00  0.00000000E+00
  0.00000000E+00  0.00000000E+00  0.00000000E+00
  0.00000000E+00  0.00000000E+00  0.00000000E+00
  0.00000000E+00  0.00000000E+00  0.00000000E+00
  0.00000000E+00  0.00000000E+00  0.00000000E+00
  0.00000000E+00  0.00000000E+00  0.00000000E+00
  0.00000000E+00  0.00000000E+00  0.00000000E+00
  0.00000000E+00  0.00000000E+00  0.00000000E+00
  0.00000000E+00  0.00000000E+00  0.00000000E+00
  0.00000000E+00  0.00000000E+00  0.00000000E+00
  0.00000000E+00  0.00000000E+00  0.00000000E+00
  0.00000000E+00  0.00000000E+00  0.00000000E+00
  0.00000000E+00  0.00000000E+00  0.00000000E+00
  0.00000000E+00  0.00000000E+00  0.00000000E+00
  0.00000000E+00  0.00000000E+00  0.00000000E+00
  0.00000000E+00  0.00000000E+00  0.00000000E+00
  0.00000000E+00  0.00000000E+00  0.00000000E+00
  0.00000000E+00  0.00000000E+00  0.00000000E+00
  0.00000000E+00  0.00000000E+00  0.00000000E+00
  0.00000000E+00  0.00000000E+00  0.00000000E+00
  0.00000000E+00  0.00000000E+00  0.00000000E+00
  0.00000000E+00  0.00000000E+00  0.00000000E+00
  0.00000000E+00  0.00000000E+00  0.00000000E+00
  0.00000000E+00  0.00000000E+00  0.00000000E+00
  0.00000000E+00  0.00000000E+00  0.00000000E+00
  0.00000000E+00  0.00000000E+00  0.00000000E+00
  0.00000000E+00  0.00000000E+00  0.00000000E+00
  0.00000000E+00  0.00000000E+00  0.00000000E+00
  0.00000000E+00  0.00000000E+00  0.00000000E+00
  0.00000000E+00  0.00000000E+00  0.00000000E+00
  0.00000000E+00  0.00000000E+00  0.00000000E+00
  0.00000000E+00  0.00000000E+00  0.00000000E+00
  0.00000000E+00  0.00000000E+00  0.00000000E+00
  0.00000000E+00  0.00000000E+00  0.00000000E+00
  0.00000000E+00  0.00000000E+00  0.00000000E+00
  0.00000000E+00  0.00000000E+00  0.00000000E+00
  0.00000000E+00  0.00000000E+00  0.00000000E+00
  0.00000000E+00  0.00000000E+00  0.00000000E+00
  0.00000000E+00  0.00000000E+00  0.00000000E+00
  0.00000000E+00  0.00000000E+00  0.00000000E+00
  0.00000000E+00  0.00000000E+00  0.00000000E+00
  0.00000000E+00  0.00000000E+00  0.00000000E+00
  0.00000000E+00  0.00000000E+00  0.00000000E+00
  0.00000000E+00  0.00000000E+00  0.00000000E+00
  0.00000000E+00  0.00000000E+00  0.00000000E+00
  0.00000000E+00  0.00000000E+00  0.00000000E+00
  0.00000000E+00  0.00000000E+00  0.00000000E+00
  0.00000000E+00  0.00000000E+00  0.00000000E+00
  0.00000000E+00  0.00000000E+00  0.00000000E+00
  0.00000000E+00  0.00000000E+00  0.00000000E+00
  0.00000000E+00  0.00000000E+00  0.00000000E+00
  0.00000000E+00  0.00000000E+00  0.00000000E+00
  0.00000000E+00  0.00000000E+00  0.00000000E+00
  0.00000000E+00  0.00000000E+00  0.00000000E+00
  0.00000000E+00  0.00000000E+00  0.00000000E+00
  0.00000000E+00  0.00000000E+00  0.00000000E+00
  0.00000000E+00  0.00000000E+00  0.00000000E+00
  0.00000000E+00  0.00000000E+00  0.00000000E+00
  0.00000000E+00  0.00000000E+00  0.00000000E+00
  0.00000000E+00  0.00000000E+00  0.00000000E+00
  0.00000000E+00  0.00000000E+00  0.00000000E+00
  0.00000000E+00  0.00000000E+00  0.00000000E+00
  0.00000000E+00  0.00000000E+00  0.00000000E+00
  0.00000000E+00  0.00000000E+00  0.00000000E+00
  0.00000000E+00  0.00000000E+00  0.00000000E+00
  0.00000000E+00  0.00000000E+00  0.00000000E+00
  0.00000000E+00  0.00000000E+00  0.00000000E+00
  0.00000000E+00  0.00000000E+00  0.00000000E+00
  0.00000000E+00  0.00000000E+00  0.00000000E+00
  0.00000000E+00  0.00000000E+00  0.00000000E+00
  0.00000000E+00  0.00000000E+00  0.00000000E+00
  0.00000000E+00  0.00000000E+00  0.00000000E+00
  0.00000000E+00  0.00000000E+00  0.00000000E+00
  0.00000000E+00  0.00000000E+00  0.00000000E+00
  0.00000000E+00  0.00000000E+00  0.00000000E+00
  0.00000000E+00  0.00000000E+00  0.00000000E+00
  0.00000000E+00  0.00000000E+00  0.00000000E+00
  0.00000000E+00  0.00000000E+00  0.00000000E+00
  0.00000000E+00  0.00000000E+00  0.00000000E+00
  0.00000000E+00  0.00000000E+00  0.00000000E+00
  0.00000000E+00  0.00000000E+00  0.00000000E+00
  0.00000000E+00  0.00000000E+00  0.00000000E+00
  0.00000000E+00  0.00000000E+00  0.00000000E+00
  0.00000000E+00  0.00000000E+00  0.00000000E+00
  0.00000000E+00  0.00000000E+00  0.00000000E+00
  0.00000000E+00  0.00000000E+00  0.00000000E+00
  0.00000000E+00  0.00000000E+00  0.00000000E+00
  0.00000000E+00  0.00000000E+00  0.00000000E+00
  0.00000000E+00  0.00000000E+00  0.00000000E+00
  0.00000000E+00  0.00000000E+00  0.00000000E+00
  0.00000000E+00  0.00000000E+00  0.00000000E+00
  0.00000000E+00  0.00000000E+00  0.00000000E+00
  0.00000000E+00  0.00000000E+00  0.00000000E+00
  0.00000000E+00  0.00000000E+00  0.00000000E+00
  0.00000000E+00  0.00000000E+00  0.00000000E+00
  0.00000000E+00  0.00000000E+00  0.00000000E+00
  0.00000000E+00  0.00000000E+00  0.00000000E+00
  0.00000000E+00  0.00000000E+00  0.00000000E+00
  0.00000000E+00  0.00000000E+00  0.00000000E+00
  0.00000000E+00  0.00000000E+00  0.00000000E+00
  0.00000000E+00  0.00000000E+00  0.00000000E+00
  0.00000000E+00  0.00000000E+00  0.00000000E+00
  0.00000000E+00  0.00000000E+00  0.00000000E+00
  0.00000000E+00  0.00000000E+00  0.00000000E+00
  0.00000000E+00  0.00000000E+00  0.00000000E+00
  0.00000000E+00  0.00000000E+00  0.00000000E+00
  0.00000000E+00  0.00000000E+00  0.00000000E+00
  0.00000000E+00  0.00000000E+00  0.00000000E+00
  0.00000000E+00  0.00000000E+00  0.00000000E+00
  0.00000000E+00  0.00000000E+00  0.00000000E+00
  0.00000000E+00  0.00000000E+00  0.00000000E+00
  0.00000000E+00  0.00000000E+00  0.00000000E+00
  0.00000000E+00  0.00000000E+00  0.00000000E+00
  0.00000000E+00  0.00000000E+00  0.00000000E+00
  0.00000000E+00  0.00000000E+00  0.00000000E+00
  0.00000000E+00  0.00000000E+00  0.00000000E+00
  0.00000000E+00  0.00000000E+00  0.00000000E+00
  0.00000000E+00  0.00000000E+00  0.00000000E+00
  0.00000000E+00  0.00000000E+00  0.00000000E+00
  0.00000000E+00  0.00000000E+00  0.00000000E+00
  0.00000000E+00  0.00000000E+00  0.00000000E+00
  0.00000000E+00  0.00000000E+00  0.00000000E+00
  0.00000000E+00  0.00000000E+00  0.00000000E+00
  0.00000000E+00  0.00000000E+00  0.00000000E+00
  0.00000000E+00  0.00000000E+00  0.00000000E+00
  0.00000000E+00  0.00000000E+00  0.00000000E+00
  0.00000000E+00  0.00000000E+00  0.00000000E+00
  0.00000000E+00  0.00000000E+00  0.00000000E+00
  0.00000000E+00  0.00000000E+00  0.00000000E+00
  0.00000000E+00  0.00000000E+00  0.00000000E+00
  0.00000000E+00  0.00000000E+00  0.00000000E+00
  0.00000000E+00  0.00000000E+00  0.00000000E+00
  0.00000000E+00  0.00000000E+00  0.00000000E+00
  0.00000000E+00  0.00000000E+00  0.00000000E+00
  0.00000000E+00  0.00000000E+00  0.00000000E+00
  0.00000000E+00  0.00000000E+00  0.00000000E+00
  0.00000000E+00  0.00000000E+00  0.00000000E+00
  0.00000000E+00  0.00000000E+00  0.00000000E+00
  0.00000000E+00  0.00000000E+00  0.00000000E+00
  0.00000000E+00  0.00000000E+00  0.00000000E+00
  0.00000000E+00  0.00000000E+00  0.00000000E+00
  0.00000000E+00  0.00000000E+00  0.00000000E+00
  0.00000000E+00  0.00000000E+00  0.00000000E+00
