POSCAR_x2BA5                            
   1.00000000000000     
     8.6119948147452430    0.0000000000000000    0.0000000000000000
     0.0000000000000000    8.5308855039210023    0.0000000000000000
     0.0000000000000000    0.0000000000000000   79.7549972534000062
   I    Pb   C    H    N 
    38    12    26   108    14
Direct
  0.4268393479763102  0.4451678375555017  0.2946667719179070
  0.4494222745601802  0.4321074127745606  0.7070708544716330
  0.5384162950458156  0.9740199055656600  0.2949896380820109
  0.5914502781007838  0.9272764188390578  0.6973301000461218
  0.2231103796599806  0.7767476426267979  0.2579240994869837
  0.2643894166493276  0.7815728356655718  0.5801960365732988
  0.2485399689496876  0.8026320955508002  0.7419482839971638
  0.0588353256247869  0.0794143415607436  0.3047289175098831
  0.0826776034123093  0.0676527574141342  0.6964659076577453
  0.9076599080684318  0.6064891911154238  0.3023293017123388
  0.9568363421200621  0.5639717804601546  0.7002440516536657
  0.8195746735160622  0.2634766366980695  0.2583057154491742
  0.7207039441969012  0.2189610841953483  0.5802147722147869
  0.7970733860098592  0.2361519303206071  0.7422974781279776
  0.4546342823991578  0.4247531370980677  0.6169095244412857
  0.5746825168229297  0.9164361784842322  0.6224988909543652
  0.2950289192736667  0.7053781395705412  0.6616203812558440
  0.0547585091052685  0.0271555876289437  0.6176216375467553
  0.9587392937483306  0.5343026133450474  0.6241766632388404
  0.7281696566479392  0.2878278475615141  0.6616310868187256
  0.2838102560580649  0.7175102354772477  0.3386020695471065
  0.7147730069514039  0.2533192481129262  0.3386735638070477
  0.4369490582784809  0.4195933522087424  0.3826522828006926
  0.5415719717709714  0.9372759046592188  0.3769711095665568
  0.0360901790318645  0.0193799506995869  0.3857464554266860
  0.9565600430698770  0.5238437588495065  0.3779998167468749
  0.2953692391007975  0.7582856143951544  0.4206194306690719
  0.6906792279285231  0.2186118148658217  0.4202147502418971
  0.5618540564393928  0.5441839401515525  0.5438844219662831
  0.4493530011429834  0.0306119052069592  0.5360847883986521
  0.9193659608623789  0.9001970725314196  0.5399935615052511
  0.0947011658008235  0.3825912878290564  0.5406159760680114
  0.3950019106118682  0.3948250405275879  0.4585335189850806
  0.0261554441991361  0.0301006762656831  0.4544820194443703
  0.9101676730472462  0.5540777549284783  0.4549483387268483
  0.2581064540974113  0.6754042416413495  0.5005910769910955
  0.7475802224344615  0.3138105985277382  0.5001521613370441
  0.5269799284967964  0.9351941016724541  0.4674895959186633
  0.2418233380579630  0.7585374764329869  0.2982216231387770
  0.2721201715616717  0.7531932707686357  0.7021481154805889
  0.7544908865354669  0.2761235796781411  0.2979382926093329
  0.7661110065529984  0.2534110530896414  0.7021800389692440
  0.2617335170316569  0.7301147831676342  0.6213253675876682
  0.7592537552601777  0.2336989858510545  0.6213706248853084
  0.2515692072880706  0.7291811844313985  0.3800238315517256
  0.7462706320647388  0.2341292571635458  0.3800733541309523
  0.2397053150223375  0.7215191826056853  0.5403484295376008
  0.7591975024560681  0.2379626270768370  0.5399059354912304
  0.2322572586781884  0.7252642515936003  0.4598173134022747
  0.7306501992462977  0.2409830034852868  0.4599966461348107
  0.1722243854129724  0.3153190565908291  0.5847141145349706
  0.7842723802733951  0.6945139795685662  0.5851042484118585
  0.6260115050796987  0.6552717410108985  0.2294630056482561
  0.7198425191219125  0.7418263573888942  0.2578199981578301
  0.6356915714344914  0.6779649372494164  0.2105090659970715
  0.7334449799234420  0.7666150493314549  0.2390058017111051
  0.3627182937744197  0.3164958310012215  0.2210755753753494
  0.3241075229926805  0.2804392472963042  0.2520853767642103
  0.3140264710578640  0.2670301670469581  0.2034408130078032
  0.2727698518487023  0.2289585738221722  0.2346993516039172
  0.3405817736048361  0.3392104097982129  0.7801284659326858
  0.3012070893411516  0.3063277679270987  0.7491391363314684
  0.2915299340908228  0.2896037417405652  0.7977409551194080
  0.2488788129451711  0.2541908853931845  0.7664631901498469
  0.6403452914609659  0.6403969646376032  0.7694187820961350
  0.7317236699004142  0.7278308936949691  0.7409294829632086
  0.6585604434049315  0.6570462870897820  0.7883746423539629
  0.7531970049911002  0.7452677291495321  0.7597604155830477
  0.2266190118961411  0.1998557958621913  0.6536205922026200
  0.8576470660740967  0.8277699306806897  0.6600921109707149
  0.2020474349076470  0.2022934275041531  0.3479877684995183
  0.8003804850059336  0.7445020316061020  0.3449567545738650
  0.1509479998150463  0.3180332504708276  0.4179816137129666
  0.7797904060994741  0.7124050763513140  0.4133540716236291
  0.1803353014761306  0.1743755939456507  0.4969027497880706
  0.8263076474832218  0.8021419121732110  0.4963123102823873
  0.2888593173433648  0.2214628863958848  0.5638637541885316
  0.4042580343925173  0.2392886202841182  0.5807783640436739
  0.2731225681491209  0.0933656262420671  0.5797597182126030
  0.1781321825718902  0.3010848015352675  0.5983473541592164
  0.1972786328283928  0.4371498136773218  0.5811806050886436
  0.0575035924199233  0.2801585767029698  0.5800453532705867
  0.6989992584468420  0.9230012095741030  0.5803139485808727
  0.7049061093132453  0.8074122913799920  0.5633488594017796
  0.5640678919944775  0.7818261968191195  0.5777853611794109
  0.7645838032445896  0.5767298543447077  0.5799315897656394
  0.9057645362118549  0.7303628773283253  0.5832866600694381
  0.7548350880180383  0.6969599070903296  0.5984813189417646
  0.5571957446957895  0.5973009955415073  0.2038289435115360
  0.6035163872665099  0.7987791662347610  0.2069555239331819
  0.5053641729283873  0.6738628135757576  0.2337751817500008
  0.6014703936498557  0.7661713958740023  0.2623965675951996
  0.7043936674901814  0.8898897540535747  0.2359265493320761
  0.8061414319589507  0.9672249804332238  0.2644060545977276
  0.8177959401333356  0.8323574619419982  0.2799138380603874
  0.8553108959100554  0.7477215430209432  0.2350550931139972
  0.9441444117288009  0.8259907402589438  0.2638012055432197
  0.7546540527280328  0.6565357527325321  0.2059088394463875
  0.6563149245236068  0.5331431990910690  0.2327741382038052
  0.7509618304660441  0.6210224544183018  0.2614209461496988
  0.3798942662556185  0.3310421396005206  0.1937773688822012
  0.3337214784037681  0.1405624498798634  0.2014577977286192
  0.4886017087622758  0.2960389591303736  0.2228132916849348
  0.4476426863850599  0.2539091785222074  0.2544030439771892
  0.2899454367886743  0.1009997102168010  0.2333216791077906
  0.2440982175733237  0.0765520528997393  0.2646306367574836
  0.2688887024026313  0.2344900345747995  0.2773168842817212
  0.1468051045411211  0.2509391165350223  0.2332263757170464
  0.1134916383042744  0.2234666258797759  0.2643905691815193
  0.1894873851225509  0.2901147723037848  0.2013295806377327
  0.3444959761470984  0.4439637582378278  0.2226827689806254
  0.3070479390138492  0.4073492277814538  0.2539924722886813
  0.3588606080856926  0.3518133207421604  0.8074199026764592
  0.1674776433669271  0.3147342938705915  0.7999155627405623
  0.3250898324148844  0.4671634487296137  0.7786050408664423
  0.2822337477670080  0.4328850378663025  0.7471621286561646
  0.1231861413275357  0.2774618354109737  0.7679727580695573
  0.0935214709904497  0.2409389560345680  0.7365754395279949
  0.2503666427244735  0.2593962138668602  0.7238304247892557
  0.2646614837241887  0.1259492838674510  0.7677174436053008
  0.2304894496843553  0.1004419437644628  0.7363621338050022
  0.3091506598027833  0.1626963722465005  0.7996097888658513
  0.4659235161235227  0.3162022407267389  0.7783244797923820
  0.4255235965190823  0.2820379613236870  0.7470370756019105
  0.5766088815781357  0.5808562845676017  0.7951698447110482
  0.7771373991256696  0.6253291672021276  0.7923908380254422
  0.6593507593362254  0.5171385028665212  0.7656459755440258
  0.7543038815389204  0.6069168173677749  0.7366952246167995
  0.8744257178777838  0.7154616978496581  0.7631514184688696
  0.9579863808246403  0.8071263851262781  0.7345764541729636
  0.8277314347104943  0.8205022186245503  0.7187961823864378
  0.7352260209007311  0.8694071974727339  0.7633486956912000
  0.8230892488799171  0.9507694027785805  0.7347719247831962
  0.6369946582250864  0.7789300819929408  0.7924012080286826
  0.5202326759904896  0.6701143546730046  0.7656882701137075
  0.6134105086516750  0.7607627149739636  0.7369821669958752
  0.2941501527359004  0.4089219222143374  0.6658755684284627
  0.2764722085626398  0.2529339949445882  0.6788186426861794
  0.4322231560801364  0.2707927326659234  0.6660259645962128
  0.2487238556107053  0.0738780731824033  0.6552567528006011
  0.1018814876629761  0.2243589980809898  0.6549067739268782
  0.2685320875138628  0.2394783285224645  0.6413340289208459
  0.6581820287401553  0.7478889948779981  0.6477737373383612
  0.7538000772867582  0.6026174018864554  0.6578587836621109
  0.6470070132621171  0.7332782993799429  0.6687407894079866
  0.9270742733809236  0.7920607723658928  0.6709693881178649
  0.9264120988520699  0.8195425496049085  0.6485388966624857
  0.8140736403815556  0.9477971962693339  0.6617764147992720
  0.2833651998838816  0.4135799945089643  0.3370353005017039
  0.4160547919140664  0.2699028710185088  0.3369611445406797
  0.2660874140926239  0.2641216275667166  0.3233660339595555
  0.2203561691315461  0.0764106584324711  0.3458276266645584
  0.2398621502755975  0.2349161671503626  0.3606511252812211
  0.0791246673139539  0.2323462839441349  0.3461620163700857
  0.5752151883098641  0.8010842117048308  0.3362953341183130
  0.6999557881476688  0.9529245909153610  0.3354190943675489
  0.7122115924370285  0.8068815154890666  0.3212689059774044
  0.9200900298771975  0.7766434242144954  0.3416362689142514
  0.7749446988439281  0.7765039377380875  0.3579810279143089
  0.7828392231526986  0.6181619608749840  0.3430952584643412
  0.2854168364506007  0.1663004339961509  0.4326723289017536
  0.2297142947759846  0.0866300444334702  0.4143351215693180
  0.3743671502045242  0.2195297316664165  0.4148538641345758
  0.1319725170859427  0.3372920404436238  0.4045338126438431
  0.0424842201468834  0.2817416344163700  0.4240879905204653
  0.1971636277035298  0.4245268912838983  0.4238662244744228
  0.7232892685474092  0.9226102567388189  0.4260287062658801
  0.5832395405966583  0.7862105381184973  0.4269141143457240
  0.7450675820978179  0.7650832262153169  0.4388038276316751
  0.7526709975790931  0.5873888486999118  0.4149456533290459
  0.7345277310075667  0.7554014459832833  0.4013332297894791
  0.9058075872619066  0.7312590135108493  0.4140628195373602
  0.3072836474256621  0.3758478728093133  0.5037162347002874
  0.3836897686770070  0.2056624147340728  0.5111371630927970
  0.4030999144390231  0.2571319547459435  0.4907337684789152
  0.2080484401568811  0.0524516672734062  0.4936088594982430
  0.1044953258472212  0.1787432055714646  0.5079625120006327
  0.1249823591146102  0.2335228981615712  0.4862406886250117
  0.6763812711303705  0.7700861108826358  0.5169501457003541
  0.5830353885772571  0.7786543280104029  0.4983421702233755
  0.6817763589606931  0.6162620799655611  0.5038438250014913
  0.8261581427891875  0.7672179615119331  0.4830673684412957
  0.8258146626710219  0.9305555188049220  0.4974532705035970
  0.9275851494675866  0.7524799707155960  0.5027492923990552
  0.2917081781191835  0.2116233376613357  0.5768873227339568
  0.6818211833715099  0.8078209524943980  0.5761625450517046
  0.8278168244854375  0.8487861054845792  0.2670308651103209
  0.2324772376913639  0.1986522973787665  0.2654340115778026
  0.2136101705650431  0.2221467537214473  0.7356560841572716
  0.8418361347216206  0.8324917245841565  0.7316932487533514
  0.3120727396809442  0.2877452429259731  0.6669107557103162
  0.7216786732427148  0.7203650450190698  0.6585844373000646
  0.2970299935522803  0.2923070994776826  0.3356106503734340
  0.6908420412028615  0.8313344629980789  0.3338315296033573
  0.2671259568655593  0.1898620648001889  0.4200425929630335
  0.7037947230125449  0.8020840873537645  0.4271654377352821
  0.3277055675957352  0.2577562888236203  0.5009197955019604
  0.6830495300615886  0.7388445077141275  0.5043588716790134
 
  0.00000000E+00  0.00000000E+00  0.00000000E+00
  0.00000000E+00  0.00000000E+00  0.00000000E+00
  0.00000000E+00  0.00000000E+00  0.00000000E+00
  0.00000000E+00  0.00000000E+00  0.00000000E+00
  0.00000000E+00  0.00000000E+00  0.00000000E+00
  0.00000000E+00  0.00000000E+00  0.00000000E+00
  0.00000000E+00  0.00000000E+00  0.00000000E+00
  0.00000000E+00  0.00000000E+00  0.00000000E+00
  0.00000000E+00  0.00000000E+00  0.00000000E+00
  0.00000000E+00  0.00000000E+00  0.00000000E+00
  0.00000000E+00  0.00000000E+00  0.00000000E+00
  0.00000000E+00  0.00000000E+00  0.00000000E+00
  0.00000000E+00  0.00000000E+00  0.00000000E+00
  0.00000000E+00  0.00000000E+00  0.00000000E+00
  0.00000000E+00  0.00000000E+00  0.00000000E+00
  0.00000000E+00  0.00000000E+00  0.00000000E+00
  0.00000000E+00  0.00000000E+00  0.00000000E+00
  0.00000000E+00  0.00000000E+00  0.00000000E+00
  0.00000000E+00  0.00000000E+00  0.00000000E+00
  0.00000000E+00  0.00000000E+00  0.00000000E+00
  0.00000000E+00  0.00000000E+00  0.00000000E+00
  0.00000000E+00  0.00000000E+00  0.00000000E+00
  0.00000000E+00  0.00000000E+00  0.00000000E+00
  0.00000000E+00  0.00000000E+00  0.00000000E+00
  0.00000000E+00  0.00000000E+00  0.00000000E+00
  0.00000000E+00  0.00000000E+00  0.00000000E+00
  0.00000000E+00  0.00000000E+00  0.00000000E+00
  0.00000000E+00  0.00000000E+00  0.00000000E+00
  0.00000000E+00  0.00000000E+00  0.00000000E+00
  0.00000000E+00  0.00000000E+00  0.00000000E+00
  0.00000000E+00  0.00000000E+00  0.00000000E+00
  0.00000000E+00  0.00000000E+00  0.00000000E+00
  0.00000000E+00  0.00000000E+00  0.00000000E+00
  0.00000000E+00  0.00000000E+00  0.00000000E+00
  0.00000000E+00  0.00000000E+00  0.00000000E+00
  0.00000000E+00  0.00000000E+00  0.00000000E+00
  0.00000000E+00  0.00000000E+00  0.00000000E+00
  0.00000000E+00  0.00000000E+00  0.00000000E+00
  0.00000000E+00  0.00000000E+00  0.00000000E+00
  0.00000000E+00  0.00000000E+00  0.00000000E+00
  0.00000000E+00  0.00000000E+00  0.00000000E+00
  0.00000000E+00  0.00000000E+00  0.00000000E+00
  0.00000000E+00  0.00000000E+00  0.00000000E+00
  0.00000000E+00  0.00000000E+00  0.00000000E+00
  0.00000000E+00  0.00000000E+00  0.00000000E+00
  0.00000000E+00  0.00000000E+00  0.00000000E+00
  0.00000000E+00  0.00000000E+00  0.00000000E+00
  0.00000000E+00  0.00000000E+00  0.00000000E+00
  0.00000000E+00  0.00000000E+00  0.00000000E+00
  0.00000000E+00  0.00000000E+00  0.00000000E+00
  0.00000000E+00  0.00000000E+00  0.00000000E+00
  0.00000000E+00  0.00000000E+00  0.00000000E+00
  0.00000000E+00  0.00000000E+00  0.00000000E+00
  0.00000000E+00  0.00000000E+00  0.00000000E+00
  0.00000000E+00  0.00000000E+00  0.00000000E+00
  0.00000000E+00  0.00000000E+00  0.00000000E+00
  0.00000000E+00  0.00000000E+00  0.00000000E+00
  0.00000000E+00  0.00000000E+00  0.00000000E+00
  0.00000000E+00  0.00000000E+00  0.00000000E+00
  0.00000000E+00  0.00000000E+00  0.00000000E+00
  0.00000000E+00  0.00000000E+00  0.00000000E+00
  0.00000000E+00  0.00000000E+00  0.00000000E+00
  0.00000000E+00  0.00000000E+00  0.00000000E+00
  0.00000000E+00  0.00000000E+00  0.00000000E+00
  0.00000000E+00  0.00000000E+00  0.00000000E+00
  0.00000000E+00  0.00000000E+00  0.00000000E+00
  0.00000000E+00  0.00000000E+00  0.00000000E+00
  0.00000000E+00  0.00000000E+00  0.00000000E+00
  0.00000000E+00  0.00000000E+00  0.00000000E+00
  0.00000000E+00  0.00000000E+00  0.00000000E+00
  0.00000000E+00  0.00000000E+00  0.00000000E+00
  0.00000000E+00  0.00000000E+00  0.00000000E+00
  0.00000000E+00  0.00000000E+00  0.00000000E+00
  0.00000000E+00  0.00000000E+00  0.00000000E+00
  0.00000000E+00  0.00000000E+00  0.00000000E+00
  0.00000000E+00  0.00000000E+00  0.00000000E+00
  0.00000000E+00  0.00000000E+00  0.00000000E+00
  0.00000000E+00  0.00000000E+00  0.00000000E+00
  0.00000000E+00  0.00000000E+00  0.00000000E+00
  0.00000000E+00  0.00000000E+00  0.00000000E+00
  0.00000000E+00  0.00000000E+00  0.00000000E+00
  0.00000000E+00  0.00000000E+00  0.00000000E+00
  0.00000000E+00  0.00000000E+00  0.00000000E+00
  0.00000000E+00  0.00000000E+00  0.00000000E+00
  0.00000000E+00  0.00000000E+00  0.00000000E+00
  0.00000000E+00  0.00000000E+00  0.00000000E+00
  0.00000000E+00  0.00000000E+00  0.00000000E+00
  0.00000000E+00  0.00000000E+00  0.00000000E+00
  0.00000000E+00  0.00000000E+00  0.00000000E+00
  0.00000000E+00  0.00000000E+00  0.00000000E+00
  0.00000000E+00  0.00000000E+00  0.00000000E+00
  0.00000000E+00  0.00000000E+00  0.00000000E+00
  0.00000000E+00  0.00000000E+00  0.00000000E+00
  0.00000000E+00  0.00000000E+00  0.00000000E+00
  0.00000000E+00  0.00000000E+00  0.00000000E+00
  0.00000000E+00  0.00000000E+00  0.00000000E+00
  0.00000000E+00  0.00000000E+00  0.00000000E+00
  0.00000000E+00  0.00000000E+00  0.00000000E+00
  0.00000000E+00  0.00000000E+00  0.00000000E+00
  0.00000000E+00  0.00000000E+00  0.00000000E+00
  0.00000000E+00  0.00000000E+00  0.00000000E+00
  0.00000000E+00  0.00000000E+00  0.00000000E+00
  0.00000000E+00  0.00000000E+00  0.00000000E+00
  0.00000000E+00  0.00000000E+00  0.00000000E+00
  0.00000000E+00  0.00000000E+00  0.00000000E+00
  0.00000000E+00  0.00000000E+00  0.00000000E+00
  0.00000000E+00  0.00000000E+00  0.00000000E+00
  0.00000000E+00  0.00000000E+00  0.00000000E+00
  0.00000000E+00  0.00000000E+00  0.00000000E+00
  0.00000000E+00  0.00000000E+00  0.00000000E+00
  0.00000000E+00  0.00000000E+00  0.00000000E+00
  0.00000000E+00  0.00000000E+00  0.00000000E+00
  0.00000000E+00  0.00000000E+00  0.00000000E+00
  0.00000000E+00  0.00000000E+00  0.00000000E+00
  0.00000000E+00  0.00000000E+00  0.00000000E+00
  0.00000000E+00  0.00000000E+00  0.00000000E+00
  0.00000000E+00  0.00000000E+00  0.00000000E+00
  0.00000000E+00  0.00000000E+00  0.00000000E+00
  0.00000000E+00  0.00000000E+00  0.00000000E+00
  0.00000000E+00  0.00000000E+00  0.00000000E+00
  0.00000000E+00  0.00000000E+00  0.00000000E+00
  0.00000000E+00  0.00000000E+00  0.00000000E+00
  0.00000000E+00  0.00000000E+00  0.00000000E+00
  0.00000000E+00  0.00000000E+00  0.00000000E+00
  0.00000000E+00  0.00000000E+00  0.00000000E+00
  0.00000000E+00  0.00000000E+00  0.00000000E+00
  0.00000000E+00  0.00000000E+00  0.00000000E+00
  0.00000000E+00  0.00000000E+00  0.00000000E+00
  0.00000000E+00  0.00000000E+00  0.00000000E+00
  0.00000000E+00  0.00000000E+00  0.00000000E+00
  0.00000000E+00  0.00000000E+00  0.00000000E+00
  0.00000000E+00  0.00000000E+00  0.00000000E+00
  0.00000000E+00  0.00000000E+00  0.00000000E+00
  0.00000000E+00  0.00000000E+00  0.00000000E+00
  0.00000000E+00  0.00000000E+00  0.00000000E+00
  0.00000000E+00  0.00000000E+00  0.00000000E+00
  0.00000000E+00  0.00000000E+00  0.00000000E+00
  0.00000000E+00  0.00000000E+00  0.00000000E+00
  0.00000000E+00  0.00000000E+00  0.00000000E+00
  0.00000000E+00  0.00000000E+00  0.00000000E+00
  0.00000000E+00  0.00000000E+00  0.00000000E+00
  0.00000000E+00  0.00000000E+00  0.00000000E+00
  0.00000000E+00  0.00000000E+00  0.00000000E+00
  0.00000000E+00  0.00000000E+00  0.00000000E+00
  0.00000000E+00  0.00000000E+00  0.00000000E+00
  0.00000000E+00  0.00000000E+00  0.00000000E+00
  0.00000000E+00  0.00000000E+00  0.00000000E+00
  0.00000000E+00  0.00000000E+00  0.00000000E+00
  0.00000000E+00  0.00000000E+00  0.00000000E+00
  0.00000000E+00  0.00000000E+00  0.00000000E+00
  0.00000000E+00  0.00000000E+00  0.00000000E+00
  0.00000000E+00  0.00000000E+00  0.00000000E+00
  0.00000000E+00  0.00000000E+00  0.00000000E+00
  0.00000000E+00  0.00000000E+00  0.00000000E+00
  0.00000000E+00  0.00000000E+00  0.00000000E+00
  0.00000000E+00  0.00000000E+00  0.00000000E+00
  0.00000000E+00  0.00000000E+00  0.00000000E+00
  0.00000000E+00  0.00000000E+00  0.00000000E+00
  0.00000000E+00  0.00000000E+00  0.00000000E+00
  0.00000000E+00  0.00000000E+00  0.00000000E+00
  0.00000000E+00  0.00000000E+00  0.00000000E+00
  0.00000000E+00  0.00000000E+00  0.00000000E+00
  0.00000000E+00  0.00000000E+00  0.00000000E+00
  0.00000000E+00  0.00000000E+00  0.00000000E+00
  0.00000000E+00  0.00000000E+00  0.00000000E+00
  0.00000000E+00  0.00000000E+00  0.00000000E+00
  0.00000000E+00  0.00000000E+00  0.00000000E+00
  0.00000000E+00  0.00000000E+00  0.00000000E+00
  0.00000000E+00  0.00000000E+00  0.00000000E+00
  0.00000000E+00  0.00000000E+00  0.00000000E+00
  0.00000000E+00  0.00000000E+00  0.00000000E+00
  0.00000000E+00  0.00000000E+00  0.00000000E+00
  0.00000000E+00  0.00000000E+00  0.00000000E+00
  0.00000000E+00  0.00000000E+00  0.00000000E+00
  0.00000000E+00  0.00000000E+00  0.00000000E+00
  0.00000000E+00  0.00000000E+00  0.00000000E+00
  0.00000000E+00  0.00000000E+00  0.00000000E+00
  0.00000000E+00  0.00000000E+00  0.00000000E+00
  0.00000000E+00  0.00000000E+00  0.00000000E+00
  0.00000000E+00  0.00000000E+00  0.00000000E+00
  0.00000000E+00  0.00000000E+00  0.00000000E+00
  0.00000000E+00  0.00000000E+00  0.00000000E+00
  0.00000000E+00  0.00000000E+00  0.00000000E+00
  0.00000000E+00  0.00000000E+00  0.00000000E+00
  0.00000000E+00  0.00000000E+00  0.00000000E+00
  0.00000000E+00  0.00000000E+00  0.00000000E+00
  0.00000000E+00  0.00000000E+00  0.00000000E+00
  0.00000000E+00  0.00000000E+00  0.00000000E+00
  0.00000000E+00  0.00000000E+00  0.00000000E+00
  0.00000000E+00  0.00000000E+00  0.00000000E+00
  0.00000000E+00  0.00000000E+00  0.00000000E+00
  0.00000000E+00  0.00000000E+00  0.00000000E+00
  0.00000000E+00  0.00000000E+00  0.00000000E+00
  0.00000000E+00  0.00000000E+00  0.00000000E+00
  0.00000000E+00  0.00000000E+00  0.00000000E+00
  0.00000000E+00  0.00000000E+00  0.00000000E+00
  0.00000000E+00  0.00000000E+00  0.00000000E+00
  0.00000000E+00  0.00000000E+00  0.00000000E+00
