POSCAR_x2BA3reopt                       
   1.00000000000000     
     8.6072676747251791    0.0000000000000000    0.0000000000000000
     0.0000000000000000    8.5436250267164588    0.0000000000000000
     0.0000000000000000    0.0000000000000000   60.7999992371000033
   I    Pb   C    H    N 
    26     8    22    84    10
Direct
  0.4263123262801383  0.4468104057600012  0.2805917317786326
  0.5703074987837643  0.5687011742917287  0.6172514197320579
  0.5378582465110490 -0.0293150379289258  0.2837168312281942
  0.4283457204738076  0.0703642439384846  0.6049186960665985
  0.2193393238009391  0.7746148190206368  0.2350069706949008
  0.2600551936027886  0.7426821700189746  0.4493812685898074
  0.2119779894902395  0.7609521882464959  0.6618754487607719
  0.0540775379052292  0.0767645827895030  0.2959222036801186
 -0.0634585849698019 -0.0670029962256662  0.6034791372053093
 -0.0948543579764767  0.6052603734082048  0.2929084439571854
  0.0689408756215737  0.4279009900293285  0.6049783458741220
  0.8107299177581631  0.2623957563927569  0.2358434735180009
  0.7395103298902747  0.2407953044922222  0.4496059731226196
  0.7649610818787109  0.2097584935657088  0.6619804859951519
  0.5892620997924770  0.5876233975021449  0.4965527900374947
  0.4488690091137917  0.0886442303322662  0.5060463389538630
  0.3026000065875334  0.7102222563335373  0.5558967845341413
  0.9598125869859924  0.9562315407957293  0.4998256270729147
  0.0884158743610578  0.4475882860778482  0.5053170526851243
  0.7202389124597084  0.2915741745947660  0.5559764716032091
  0.2930463797340937  0.7217933967412199  0.3412711471688994
  0.7061340074619211  0.2600736397397696  0.3419145177452544
  0.4218391087411626  0.4051511754917937  0.4021175785973435
  0.5554399981701351 -0.0952553240719061  0.3945727267626826
  0.0453669977791292  0.0304706883781111  0.3964388560713035
  0.9333997529133212  0.5284562344869544  0.3975191872263225
  0.2405531431595061  0.7571682234075451  0.2882393643645129
  0.2520545301933033  0.7431316982216121  0.6090903760184874
  0.7490633680992252  0.2753004126850017  0.2880791917550288
  0.7463531052754945  0.2495488649792300  0.6091736103575993
  0.2681463326795076  0.7663170398107894  0.5021281937805732
  0.7703230984156700  0.2675708937528495  0.5020924438441132
  0.2392300955547626  0.7249978144861023  0.3969279112935991
  0.7373841246555141  0.2223989663203995  0.3972460228839394
  0.1955784284280980  0.2172414215026724  0.4498602922836676
  0.8024816461654858  0.7790940062978238  0.4477820050023583
  0.6268432638852955  0.6637456648307072  0.1950257112470870
  0.7141733733971695  0.7421651265819310  0.2329746504722544
  0.6426359056838646  0.6908394212330408  0.1702929307450988
  0.7329928651665356  0.7711892261451596  0.2084344077401367
  0.3543156359983148  0.3127652341883025  0.1856746772369734
  0.3152261460730993  0.2761011299623615  0.2263076673192927
  0.3048267592606254  0.2650880297028671  0.1624965417616430
  0.2628873802176676  0.2259467266175960  0.2034878699364478
  0.3581836866780015  0.3476752848443737  0.7008096650427147
  0.2771578841064159  0.2716269086309055  0.6624117316804997
  0.3344320803087386  0.3214010188126490  0.7254353222875551
  0.2512303173042036  0.2446004847035040  0.6868759799251276
  0.6609476090469323  0.6678260502828535  0.7129864609360325
  0.7047691345087468  0.7044356049878124  0.6724983456714166
  0.7067846006881059  0.7157461527934541  0.7363041308591098
  0.7542977676270919  0.7550663651244567  0.6954154607692754
  0.1603997347523798  0.1598968702576475  0.5530666708859390
  0.8042696408447451  0.7880503872397736  0.5476015276719260
  0.2038643893706349  0.2238915291248051  0.3505314195524282
  0.8235903180862003  0.7594401017585212  0.3488123800927552
  0.2802470838257404  0.4239251682742568  0.4644711386366975
  0.3777040092674923  0.2618425641555855  0.4721107035035047
  0.4052199536420218  0.3401614753758970  0.4467967157333216
  0.2478281021347465  0.1127756697739573  0.4423700513198946
  0.1181954402354816  0.1833650251004530  0.4634172802750642
  0.1320795815848836  0.2845954351777310  0.4373769591272360
  0.6026028709143475  0.7251058664364989  0.4295187447825706
  0.7303435178111276  0.5773715138296299  0.4309789088870219
  0.6203878685436348  0.6218815946298403  0.4532676003622403
  0.8849198772975996  0.7142858073976681  0.4581215571751088
  0.8620561010170492  0.8292043813480668  0.4334213389934494
  0.7462017308635247  0.8718034819923202  0.4574070041680047
  0.5652648055247198  0.6129173769325810  0.1608927552466993
  0.6129069671482117  0.8126130308689705  0.1659126845754949
  0.5052055877651629  0.6829836152505554  0.2002092814659335
  0.5951190124051612  0.7675808537465556  0.2386111255179140
  0.7063334727039779  0.8953208073262720  0.2046960974786419
  0.8016944576046975  0.9640015691772806  0.2428272796468531
  0.8084445145046962  0.8254279960184709  0.2626531061070970
  0.8557069264178369  0.7515247936598279  0.2036619550654859
  0.9382895306603893  0.8215563577066831  0.2419232004431865
  0.7627294610928863  0.6689425951285646  0.1647238511138902
  0.6546442272094712  0.5406630755666023  0.1990526646283156
  0.7424804239533450  0.6202280941490854  0.2373699323529352
  0.3715218029720362  0.3286972456394797  0.1498826982913558
  0.3229228860434462  0.1386967795610700  0.1597881361005199
  0.4798501997284693  0.2900904461580764  0.1879635203522849
  0.4386003877163939  0.2483514714327372  0.2292610530167207
  0.2783284493686690  0.0979899332262844  0.2015848467958096
  0.2344455944798072  0.0727967828988103  0.2427767551737395
  0.2606693768727075  0.2301276866314997  0.2594181035622345
  0.1371907874536333  0.2499325075513736  0.2015627337077830
  0.1046121359371494  0.2205067187961190  0.2425927819123816
  0.1805419197796899  0.2900559117013161  0.1597649399143425
  0.3380849132828386  0.4401897174910570  0.1879146158082767
  0.2992483413652059  0.4028109445087814  0.2288811592780653
  0.4118107580412890  0.3964862442567091  0.7352900620784790
  0.2136757792510256  0.3477441205537566  0.7303185872872752
  0.3368365109445835  0.4718371380048427  0.6966515623179791
  0.2531830163978137  0.3938274593627825  0.6576705453748717
  0.1282952405263450  0.2694315065371104  0.6910053114031297
  0.0539123193951834  0.1927644770570987  0.6527433523328537
  0.1873509628760642  0.1882942029868575  0.6323760444933630
  0.2717489908851606  0.1196311824305590  0.6907878992700673
  0.1904798447510293  0.0509192313092561  0.6524049150655871
  0.3583679409421057  0.1986038648845524  0.7299753780951735
  0.4802280980333712  0.3230636086425674  0.6963043736913648
  0.3969385579085182  0.2426832838629214  0.6574412192702764
  0.6383999949053561  0.6519386538290808  0.7487180157904866
  0.8307127866218348  0.6912821508103014  0.7394303694168043
  0.6777691535001031  0.5403884202455477  0.7108068886348047
  0.7243541344707339  0.5783326940841237  0.6697945551996682
  0.8798991551243613  0.7322000454546244  0.6976578464342180
  0.9141297711244415  0.7698806658133013  0.6563909249419100
  0.7587228398818414  0.7533694394905620  0.6394662911974420
  0.7374471938833735  0.8828838349152520  0.6972561134437646
  0.7777937046455135  0.9111295562366354  0.6561148582880920
  0.6877621162362921  0.8420867047160044  0.7389463533550071
  0.5357221703350663  0.6901692916217859  0.7103434194924434
  0.5807327128997795  0.7286933241195946  0.6694935014742527
  0.2550822017328919  0.3887199215126412  0.5507726011181434
  0.3324003515626853  0.2781336001643523  0.5709504631076809
  0.3810882444804951  0.2451522462682632  0.5445770128135276
  0.2022200876997147  0.0467601213127875  0.5592815072002966
  0.0616420640093905  0.2015400780344442  0.5628586772943106
  0.1279071730509933  0.1497729557556867  0.5356600831594616
  0.5968117895287911  0.7241806516667593  0.5638762101100906
  0.7323408242007746  0.5838661190162332  0.5643081822916597
  0.7518948052847770  0.7426100636096046  0.5808072866563678
  0.9287643816247101  0.7632766518908256  0.5496349093459445
  0.7634863024759487  0.7449073493664232  0.5316098137843737
  0.7827520076101410  0.9144103229239444  0.5490581267235671
  0.2828204003772105  0.4265432661913974  0.3339426830215560
  0.4138076365212059  0.2816191103554236  0.3344434134394812
  0.2590695615977594  0.2692156302110909  0.3173867085970393
  0.2215315043963355  0.0970666059234580  0.3489350933915931
  0.2456449834371590  0.2647471824144971  0.3665937697323773
  0.0802097178355208  0.2522711691231739  0.3484505480663475
  0.5896507481666552  0.8021348827779266  0.3397758843796345
  0.7059999576453554  0.9591117237966895  0.3367128810023222
  0.7148259140684946  0.8100329844825276  0.3186246651497713
  0.9382276825851142  0.7949597171043832  0.3426376646601639
  0.8084358496091059  0.7961500662575353  0.3659635965561199
  0.8096894660144428  0.6320354085780809  0.3473850697752219
  0.3227495499641407  0.3171813507656759  0.4589047656439468
  0.6806854941175073  0.6684319429596619  0.4399154964554798
  0.8215879145940431  0.8449356522870520  0.2458630713062118
  0.2235054312662338  0.1947972032281153  0.2438600329561152
  0.1709254030404400  0.1698849858087833  0.6491394089264922
  0.7941734121494037  0.7896108311563809  0.6550827459159654
  0.2895735794892383  0.2757270693366733  0.5549755355010429
  0.7165219517499946  0.7052467583972150  0.5652924887985230
  0.2947536956246475  0.3047505965601199  0.3329506389964871
  0.7014999449971814  0.8370479194279521  0.3351948311737690
 
  0.00000000E+00  0.00000000E+00  0.00000000E+00
  0.00000000E+00  0.00000000E+00  0.00000000E+00
  0.00000000E+00  0.00000000E+00  0.00000000E+00
  0.00000000E+00  0.00000000E+00  0.00000000E+00
  0.00000000E+00  0.00000000E+00  0.00000000E+00
  0.00000000E+00  0.00000000E+00  0.00000000E+00
  0.00000000E+00  0.00000000E+00  0.00000000E+00
  0.00000000E+00  0.00000000E+00  0.00000000E+00
  0.00000000E+00  0.00000000E+00  0.00000000E+00
  0.00000000E+00  0.00000000E+00  0.00000000E+00
  0.00000000E+00  0.00000000E+00  0.00000000E+00
  0.00000000E+00  0.00000000E+00  0.00000000E+00
  0.00000000E+00  0.00000000E+00  0.00000000E+00
  0.00000000E+00  0.00000000E+00  0.00000000E+00
  0.00000000E+00  0.00000000E+00  0.00000000E+00
  0.00000000E+00  0.00000000E+00  0.00000000E+00
  0.00000000E+00  0.00000000E+00  0.00000000E+00
  0.00000000E+00  0.00000000E+00  0.00000000E+00
  0.00000000E+00  0.00000000E+00  0.00000000E+00
  0.00000000E+00  0.00000000E+00  0.00000000E+00
  0.00000000E+00  0.00000000E+00  0.00000000E+00
  0.00000000E+00  0.00000000E+00  0.00000000E+00
  0.00000000E+00  0.00000000E+00  0.00000000E+00
  0.00000000E+00  0.00000000E+00  0.00000000E+00
  0.00000000E+00  0.00000000E+00  0.00000000E+00
  0.00000000E+00  0.00000000E+00  0.00000000E+00
  0.00000000E+00  0.00000000E+00  0.00000000E+00
  0.00000000E+00  0.00000000E+00  0.00000000E+00
  0.00000000E+00  0.00000000E+00  0.00000000E+00
  0.00000000E+00  0.00000000E+00  0.00000000E+00
  0.00000000E+00  0.00000000E+00  0.00000000E+00
  0.00000000E+00  0.00000000E+00  0.00000000E+00
  0.00000000E+00  0.00000000E+00  0.00000000E+00
  0.00000000E+00  0.00000000E+00  0.00000000E+00
  0.00000000E+00  0.00000000E+00  0.00000000E+00
  0.00000000E+00  0.00000000E+00  0.00000000E+00
  0.00000000E+00  0.00000000E+00  0.00000000E+00
  0.00000000E+00  0.00000000E+00  0.00000000E+00
  0.00000000E+00  0.00000000E+00  0.00000000E+00
  0.00000000E+00  0.00000000E+00  0.00000000E+00
  0.00000000E+00  0.00000000E+00  0.00000000E+00
  0.00000000E+00  0.00000000E+00  0.00000000E+00
  0.00000000E+00  0.00000000E+00  0.00000000E+00
  0.00000000E+00  0.00000000E+00  0.00000000E+00
  0.00000000E+00  0.00000000E+00  0.00000000E+00
  0.00000000E+00  0.00000000E+00  0.00000000E+00
  0.00000000E+00  0.00000000E+00  0.00000000E+00
  0.00000000E+00  0.00000000E+00  0.00000000E+00
  0.00000000E+00  0.00000000E+00  0.00000000E+00
  0.00000000E+00  0.00000000E+00  0.00000000E+00
  0.00000000E+00  0.00000000E+00  0.00000000E+00
  0.00000000E+00  0.00000000E+00  0.00000000E+00
  0.00000000E+00  0.00000000E+00  0.00000000E+00
  0.00000000E+00  0.00000000E+00  0.00000000E+00
  0.00000000E+00  0.00000000E+00  0.00000000E+00
  0.00000000E+00  0.00000000E+00  0.00000000E+00
  0.00000000E+00  0.00000000E+00  0.00000000E+00
  0.00000000E+00  0.00000000E+00  0.00000000E+00
  0.00000000E+00  0.00000000E+00  0.00000000E+00
  0.00000000E+00  0.00000000E+00  0.00000000E+00
  0.00000000E+00  0.00000000E+00  0.00000000E+00
  0.00000000E+00  0.00000000E+00  0.00000000E+00
  0.00000000E+00  0.00000000E+00  0.00000000E+00
  0.00000000E+00  0.00000000E+00  0.00000000E+00
  0.00000000E+00  0.00000000E+00  0.00000000E+00
  0.00000000E+00  0.00000000E+00  0.00000000E+00
  0.00000000E+00  0.00000000E+00  0.00000000E+00
  0.00000000E+00  0.00000000E+00  0.00000000E+00
  0.00000000E+00  0.00000000E+00  0.00000000E+00
  0.00000000E+00  0.00000000E+00  0.00000000E+00
  0.00000000E+00  0.00000000E+00  0.00000000E+00
  0.00000000E+00  0.00000000E+00  0.00000000E+00
  0.00000000E+00  0.00000000E+00  0.00000000E+00
  0.00000000E+00  0.00000000E+00  0.00000000E+00
  0.00000000E+00  0.00000000E+00  0.00000000E+00
  0.00000000E+00  0.00000000E+00  0.00000000E+00
  0.00000000E+00  0.00000000E+00  0.00000000E+00
  0.00000000E+00  0.00000000E+00  0.00000000E+00
  0.00000000E+00  0.00000000E+00  0.00000000E+00
  0.00000000E+00  0.00000000E+00  0.00000000E+00
  0.00000000E+00  0.00000000E+00  0.00000000E+00
  0.00000000E+00  0.00000000E+00  0.00000000E+00
  0.00000000E+00  0.00000000E+00  0.00000000E+00
  0.00000000E+00  0.00000000E+00  0.00000000E+00
  0.00000000E+00  0.00000000E+00  0.00000000E+00
  0.00000000E+00  0.00000000E+00  0.00000000E+00
  0.00000000E+00  0.00000000E+00  0.00000000E+00
  0.00000000E+00  0.00000000E+00  0.00000000E+00
  0.00000000E+00  0.00000000E+00  0.00000000E+00
  0.00000000E+00  0.00000000E+00  0.00000000E+00
  0.00000000E+00  0.00000000E+00  0.00000000E+00
  0.00000000E+00  0.00000000E+00  0.00000000E+00
  0.00000000E+00  0.00000000E+00  0.00000000E+00
  0.00000000E+00  0.00000000E+00  0.00000000E+00
  0.00000000E+00  0.00000000E+00  0.00000000E+00
  0.00000000E+00  0.00000000E+00  0.00000000E+00
  0.00000000E+00  0.00000000E+00  0.00000000E+00
  0.00000000E+00  0.00000000E+00  0.00000000E+00
  0.00000000E+00  0.00000000E+00  0.00000000E+00
  0.00000000E+00  0.00000000E+00  0.00000000E+00
  0.00000000E+00  0.00000000E+00  0.00000000E+00
  0.00000000E+00  0.00000000E+00  0.00000000E+00
  0.00000000E+00  0.00000000E+00  0.00000000E+00
  0.00000000E+00  0.00000000E+00  0.00000000E+00
  0.00000000E+00  0.00000000E+00  0.00000000E+00
  0.00000000E+00  0.00000000E+00  0.00000000E+00
  0.00000000E+00  0.00000000E+00  0.00000000E+00
  0.00000000E+00  0.00000000E+00  0.00000000E+00
  0.00000000E+00  0.00000000E+00  0.00000000E+00
  0.00000000E+00  0.00000000E+00  0.00000000E+00
  0.00000000E+00  0.00000000E+00  0.00000000E+00
  0.00000000E+00  0.00000000E+00  0.00000000E+00
  0.00000000E+00  0.00000000E+00  0.00000000E+00
  0.00000000E+00  0.00000000E+00  0.00000000E+00
  0.00000000E+00  0.00000000E+00  0.00000000E+00
  0.00000000E+00  0.00000000E+00  0.00000000E+00
  0.00000000E+00  0.00000000E+00  0.00000000E+00
  0.00000000E+00  0.00000000E+00  0.00000000E+00
  0.00000000E+00  0.00000000E+00  0.00000000E+00
  0.00000000E+00  0.00000000E+00  0.00000000E+00
  0.00000000E+00  0.00000000E+00  0.00000000E+00
  0.00000000E+00  0.00000000E+00  0.00000000E+00
  0.00000000E+00  0.00000000E+00  0.00000000E+00
  0.00000000E+00  0.00000000E+00  0.00000000E+00
  0.00000000E+00  0.00000000E+00  0.00000000E+00
  0.00000000E+00  0.00000000E+00  0.00000000E+00
  0.00000000E+00  0.00000000E+00  0.00000000E+00
  0.00000000E+00  0.00000000E+00  0.00000000E+00
  0.00000000E+00  0.00000000E+00  0.00000000E+00
  0.00000000E+00  0.00000000E+00  0.00000000E+00
  0.00000000E+00  0.00000000E+00  0.00000000E+00
  0.00000000E+00  0.00000000E+00  0.00000000E+00
  0.00000000E+00  0.00000000E+00  0.00000000E+00
  0.00000000E+00  0.00000000E+00  0.00000000E+00
  0.00000000E+00  0.00000000E+00  0.00000000E+00
  0.00000000E+00  0.00000000E+00  0.00000000E+00
  0.00000000E+00  0.00000000E+00  0.00000000E+00
  0.00000000E+00  0.00000000E+00  0.00000000E+00
  0.00000000E+00  0.00000000E+00  0.00000000E+00
  0.00000000E+00  0.00000000E+00  0.00000000E+00
  0.00000000E+00  0.00000000E+00  0.00000000E+00
  0.00000000E+00  0.00000000E+00  0.00000000E+00
  0.00000000E+00  0.00000000E+00  0.00000000E+00
  0.00000000E+00  0.00000000E+00  0.00000000E+00
  0.00000000E+00  0.00000000E+00  0.00000000E+00
  0.00000000E+00  0.00000000E+00  0.00000000E+00
  0.00000000E+00  0.00000000E+00  0.00000000E+00
  0.00000000E+00  0.00000000E+00  0.00000000E+00
  0.00000000E+00  0.00000000E+00  0.00000000E+00
  0.00000000E+00  0.00000000E+00  0.00000000E+00
