POSCAR_BAMA1_x2                         
   1.00000000000000     
     8.5201028269278005    0.0000000000000000    0.0000000000000000
     0.0000000000000000    8.3344740605665955    0.0000000000000000
     0.0000000000000000    0.0000000000000000   54.4589996337999978
   I    Pb   C    H    N 
    14     4    18    60     6
Direct
  0.3842382291051525  0.4112626045473708  0.4397160473645877
  0.4469705780986385  0.4316558222301207  0.5787294773124320
  0.5144162642321358  0.9481590311467037  0.4378696025084696
  0.5847771107943258  0.9312451244246671  0.5688233652291047
  0.1998186257708079  0.7361657530072351  0.3867033840355427
  0.2929701679233091  0.7416359309647639  0.5068276339439989
  0.2494413012521739  0.7717038261306450  0.6278489491129972
  0.0171310590298043  0.0526157195301214  0.4518430592584844
  0.0799887711776362  0.0710673953316756  0.5612473980095533
  0.8758948678642730  0.5941040727959971  0.4503523318892950
  0.9519401612242610  0.5711735373851683  0.5652406100158331
  0.7869681980596890  0.2617061081726122  0.3861772548617912
  0.7002195196726042  0.2747437764199093  0.5067126059708794
  0.8083103112880548  0.2459935784165463  0.6265434682453723
  0.2183397824571385  0.7362618229385400  0.4459376129448338
  0.2684431695072036  0.7526026856818215  0.5687270125188767
  0.7204063688258482  0.2630430884673104  0.4441056498992705
  0.7620748307841571  0.2567715183501672  0.5678295441719148
  0.1963108071606606  0.2447951268840450  0.5012965727924589
  0.8122226932674155  0.7742686844144926  0.5116992000213517
  0.6045970039213543  0.6784412880547466  0.3381374710102523
  0.6895430118227764  0.7424459063069607  0.3813348018818494
  0.6332610865477396  0.7056988468690411  0.3107837953295597
  0.7212129538740712  0.7703080159224170  0.3541969069763337
  0.3526210639119940  0.2738256742570483  0.3310835943478160
  0.3036753277894182  0.2399895827821545  0.3763520995112010
  0.2973587813221943  0.2356110918554765  0.3050589030819558
  0.2464121287512501  0.1993992454813481  0.3506593615066166
  0.3549232853411313  0.3011695101110886  0.6852306237902444
  0.3239708467382093  0.2685034787682587  0.6395891266279181
  0.2797658690836572  0.2797718319746973  0.7104734538282397
  0.2507888293469078  0.2370447446679449  0.6645693874844941
  0.6447917544466117  0.6742921946159477  0.6744962721343943
  0.7315503192600924  0.7321296699135174  0.6310692997071516
  0.6696005445303929  0.7105456619623589  0.7017157917765892
  0.7602260262261941  0.7657756216442873  0.6581595215398416
  0.2837603092573305  0.4488467166304188  0.5195152079698038
  0.2591755800971393  0.2869742752114212  0.5380878683013818
  0.4125303847700542  0.2971691021981410  0.5183903584814461
  0.2104526630624581  0.1142001681160825  0.5029326174351445
  0.0725657693499303  0.2776546017956938  0.5040470755525286
  0.2373625358026519  0.2859285015944056  0.4832590546300919
  0.5809598485159572  0.8148205190212319  0.4990542346430474
  0.6988486589710652  0.9765175486323752  0.4966957380051905
  0.7176987779993833  0.8215386285930150  0.4767974259837794
  0.9307350345808802  0.8129376756070792  0.5063532476592809
  0.7863403516071459  0.8116223190661062  0.5305722879661756
  0.8015320582537155  0.6434124343534952  0.5099588976741372
  0.5478454203429554  0.6397315914845384  0.2994318044288053
  0.6235525631745401  0.8341817793531454  0.3061004842950640
  0.4838207769650456  0.7151969379461850  0.3430402609878890
  0.5711128865583599  0.7825210377108773  0.3866772387814568
  0.7139426616807801  0.9004222105834354  0.3501570252343352
  0.7946062929521264  0.9576495017451947  0.3937452892532760
  0.7854774191901753  0.8125175093833600  0.4153236761452882
  0.8425451521635680  0.7322791294676160  0.3497737326000969
  0.9203205314070096  0.7995968238660559  0.3927938288018452
  0.7518780202523956  0.6655836622663618  0.3054435012051704
  0.6132479072521395  0.5490655822302645  0.3424570909108476
  0.7016778907274914  0.6147334072327971  0.3862788280229482
  0.3751301875065177  0.2895529416520093  0.2911666781512008
  0.2948365162046498  0.1048858926904007  0.3018556501413902
  0.4742664199271014  0.2304626697366843  0.3337588772481558
  0.4232326899808517  0.1943253410741539  0.3797739371080422
  0.2422688596100456  0.0674682795484787  0.3483253902250839
  0.2014144724632375  0.0419034912734448  0.3945881497967759
  0.2352445479000871  0.2025027868359898  0.4130278824807368
  0.1248670838354638  0.2439954966979652  0.3483219359013721
  0.0823466364124508  0.2041876024452832  0.3933233152411947
  0.1776986978585670  0.2818833214954306  0.3019019616041424
  0.3562473118556065  0.4052991347009919  0.3338042133955779
  0.3044262101738602  0.3706101011789582  0.3795952137084143
  0.3566898391460479  0.3243975159380336  0.7252267043046838
  0.1676249409720860  0.3456407710162673  0.7115974286380178
  0.3792578503916708  0.4297210051284524  0.6819119118630105
  0.3340112949625615  0.3981049256807791  0.6358277133791449
  0.1339533106309694  0.2949954656867563  0.6653954641511738
  0.1083953410911247  0.2323390974165808  0.6206832803532468
  0.2686678308032232  0.2340941346545927  0.6023033200866945
  0.2314702661106703  0.1066355639659880  0.6670305239907458
  0.2292093596817782  0.0720200804124168  0.6201451431862454
  0.2547728762570733  0.1521443025167249  0.7141890069402899
  0.4698848973012540  0.2393420551684476  0.6846200049721056
  0.4421877486404359  0.2154256263843778  0.6379841232802396
  0.5853570067589485  0.6447856976286200  0.7133178784012916
  0.7890288522830695  0.6766837477645830  0.7076237895849513
  0.6577631047739598  0.5440687279322476  0.6710741925530829
  0.7469408640332412  0.6039204717471015  0.6266524870825841
  0.8822073345141624  0.7318685883883401  0.6629723701300358
  0.9620829319264187  0.7960083150149727  0.6201304100655204
  0.8299345591428807  0.7983923603460170  0.5970568970676252
  0.7494509231806709  0.8963923885132875  0.6615881881988939
  0.8309311884094795  0.9481763163387197  0.6180377688308050
  0.6547349051058787  0.8398719216896613  0.7054556475342629
  0.5235544817348070  0.7060625805529519  0.6690788625060430
  0.6127131875120725  0.7688029157378405  0.6253275215491296
  0.2930870867215898  0.3237652969361841  0.5205966414190087
  0.6958379878844558  0.8512512822841335  0.4950450863654923
  0.8040935085336555  0.8337051437085934  0.3967042057131879
  0.1993766731483627  0.1676376511380912  0.3954678732154751
  0.2266009875245358  0.1978901452543988  0.6194560782037581
  0.8453781457508750  0.8240093452085501  0.6156182748206201
 
  0.00000000E+00  0.00000000E+00  0.00000000E+00
  0.00000000E+00  0.00000000E+00  0.00000000E+00
  0.00000000E+00  0.00000000E+00  0.00000000E+00
  0.00000000E+00  0.00000000E+00  0.00000000E+00
  0.00000000E+00  0.00000000E+00  0.00000000E+00
  0.00000000E+00  0.00000000E+00  0.00000000E+00
  0.00000000E+00  0.00000000E+00  0.00000000E+00
  0.00000000E+00  0.00000000E+00  0.00000000E+00
  0.00000000E+00  0.00000000E+00  0.00000000E+00
  0.00000000E+00  0.00000000E+00  0.00000000E+00
  0.00000000E+00  0.00000000E+00  0.00000000E+00
  0.00000000E+00  0.00000000E+00  0.00000000E+00
  0.00000000E+00  0.00000000E+00  0.00000000E+00
  0.00000000E+00  0.00000000E+00  0.00000000E+00
  0.00000000E+00  0.00000000E+00  0.00000000E+00
  0.00000000E+00  0.00000000E+00  0.00000000E+00
  0.00000000E+00  0.00000000E+00  0.00000000E+00
  0.00000000E+00  0.00000000E+00  0.00000000E+00
  0.00000000E+00  0.00000000E+00  0.00000000E+00
  0.00000000E+00  0.00000000E+00  0.00000000E+00
  0.00000000E+00  0.00000000E+00  0.00000000E+00
  0.00000000E+00  0.00000000E+00  0.00000000E+00
  0.00000000E+00  0.00000000E+00  0.00000000E+00
  0.00000000E+00  0.00000000E+00  0.00000000E+00
  0.00000000E+00  0.00000000E+00  0.00000000E+00
  0.00000000E+00  0.00000000E+00  0.00000000E+00
  0.00000000E+00  0.00000000E+00  0.00000000E+00
  0.00000000E+00  0.00000000E+00  0.00000000E+00
  0.00000000E+00  0.00000000E+00  0.00000000E+00
  0.00000000E+00  0.00000000E+00  0.00000000E+00
  0.00000000E+00  0.00000000E+00  0.00000000E+00
  0.00000000E+00  0.00000000E+00  0.00000000E+00
  0.00000000E+00  0.00000000E+00  0.00000000E+00
  0.00000000E+00  0.00000000E+00  0.00000000E+00
  0.00000000E+00  0.00000000E+00  0.00000000E+00
  0.00000000E+00  0.00000000E+00  0.00000000E+00
  0.00000000E+00  0.00000000E+00  0.00000000E+00
  0.00000000E+00  0.00000000E+00  0.00000000E+00
  0.00000000E+00  0.00000000E+00  0.00000000E+00
  0.00000000E+00  0.00000000E+00  0.00000000E+00
  0.00000000E+00  0.00000000E+00  0.00000000E+00
  0.00000000E+00  0.00000000E+00  0.00000000E+00
  0.00000000E+00  0.00000000E+00  0.00000000E+00
  0.00000000E+00  0.00000000E+00  0.00000000E+00
  0.00000000E+00  0.00000000E+00  0.00000000E+00
  0.00000000E+00  0.00000000E+00  0.00000000E+00
  0.00000000E+00  0.00000000E+00  0.00000000E+00
  0.00000000E+00  0.00000000E+00  0.00000000E+00
  0.00000000E+00  0.00000000E+00  0.00000000E+00
  0.00000000E+00  0.00000000E+00  0.00000000E+00
  0.00000000E+00  0.00000000E+00  0.00000000E+00
  0.00000000E+00  0.00000000E+00  0.00000000E+00
  0.00000000E+00  0.00000000E+00  0.00000000E+00
  0.00000000E+00  0.00000000E+00  0.00000000E+00
  0.00000000E+00  0.00000000E+00  0.00000000E+00
  0.00000000E+00  0.00000000E+00  0.00000000E+00
  0.00000000E+00  0.00000000E+00  0.00000000E+00
  0.00000000E+00  0.00000000E+00  0.00000000E+00
  0.00000000E+00  0.00000000E+00  0.00000000E+00
  0.00000000E+00  0.00000000E+00  0.00000000E+00
  0.00000000E+00  0.00000000E+00  0.00000000E+00
  0.00000000E+00  0.00000000E+00  0.00000000E+00
  0.00000000E+00  0.00000000E+00  0.00000000E+00
  0.00000000E+00  0.00000000E+00  0.00000000E+00
  0.00000000E+00  0.00000000E+00  0.00000000E+00
  0.00000000E+00  0.00000000E+00  0.00000000E+00
  0.00000000E+00  0.00000000E+00  0.00000000E+00
  0.00000000E+00  0.00000000E+00  0.00000000E+00
  0.00000000E+00  0.00000000E+00  0.00000000E+00
  0.00000000E+00  0.00000000E+00  0.00000000E+00
  0.00000000E+00  0.00000000E+00  0.00000000E+00
  0.00000000E+00  0.00000000E+00  0.00000000E+00
  0.00000000E+00  0.00000000E+00  0.00000000E+00
  0.00000000E+00  0.00000000E+00  0.00000000E+00
  0.00000000E+00  0.00000000E+00  0.00000000E+00
  0.00000000E+00  0.00000000E+00  0.00000000E+00
  0.00000000E+00  0.00000000E+00  0.00000000E+00
  0.00000000E+00  0.00000000E+00  0.00000000E+00
  0.00000000E+00  0.00000000E+00  0.00000000E+00
  0.00000000E+00  0.00000000E+00  0.00000000E+00
  0.00000000E+00  0.00000000E+00  0.00000000E+00
  0.00000000E+00  0.00000000E+00  0.00000000E+00
  0.00000000E+00  0.00000000E+00  0.00000000E+00
  0.00000000E+00  0.00000000E+00  0.00000000E+00
  0.00000000E+00  0.00000000E+00  0.00000000E+00
  0.00000000E+00  0.00000000E+00  0.00000000E+00
  0.00000000E+00  0.00000000E+00  0.00000000E+00
  0.00000000E+00  0.00000000E+00  0.00000000E+00
  0.00000000E+00  0.00000000E+00  0.00000000E+00
  0.00000000E+00  0.00000000E+00  0.00000000E+00
  0.00000000E+00  0.00000000E+00  0.00000000E+00
  0.00000000E+00  0.00000000E+00  0.00000000E+00
  0.00000000E+00  0.00000000E+00  0.00000000E+00
  0.00000000E+00  0.00000000E+00  0.00000000E+00
  0.00000000E+00  0.00000000E+00  0.00000000E+00
  0.00000000E+00  0.00000000E+00  0.00000000E+00
  0.00000000E+00  0.00000000E+00  0.00000000E+00
  0.00000000E+00  0.00000000E+00  0.00000000E+00
  0.00000000E+00  0.00000000E+00  0.00000000E+00
  0.00000000E+00  0.00000000E+00  0.00000000E+00
  0.00000000E+00  0.00000000E+00  0.00000000E+00
  0.00000000E+00  0.00000000E+00  0.00000000E+00
