POSCAR_X2BA2reopt                       
   1.00000000000000     
     8.6038718787996622    0.0000000000000000    0.0000000000000000
     0.0000000000000000    8.5415102436738159    0.0000000000000000
     0.0000000000000000    0.0000000000000000   60.7999992371000033
   I    Pb   C    H    N 
    20     6    20    72     8
Direct
  0.4292784596504112  0.4482390806452439  0.3870684741446488
  0.4339694113028570  0.4221885474336679  0.6135173851485946
  0.5405441600167744 -0.0330276906874686  0.3894437206941964
  0.5746397326651959  0.9240306669746174  0.6030830089641754
  0.2208692799081310  0.7725390984181680  0.3405295941980013
  0.2775738672089473  0.7362860138615972  0.4469867170884406
  0.2390698993783714  0.7917297154216282  0.6607839119290831
  0.0607216831857685  0.0813218907716591  0.4007342477178269
  0.0720494399685533  0.0624615757495456  0.6009111620324448
 -0.0925603731268941  0.6016944942869042  0.4001375080908072
 -0.0659222065006777  0.5662544733778690  0.6065488714861725
  0.8154797465438905  0.2589272813185776  0.3413378672117647
  0.7067688274203545  0.2365810107848537  0.4469422733876490
  0.7908980040172722  0.2384611902430319  0.6610629547704727
  0.4380751721903843  0.4228036195193011  0.4994981290107125
  0.5444195932616406 -0.0734269025647759  0.5082036125736467
  0.2688383318593694  0.6897097360936516  0.5552477949057016
  0.0224451813533382  0.0085787203325777  0.4971041738188655
 -0.0542938035187093  0.5259291461451606  0.5038642374624649
  0.7256777592644060  0.2798525071788429  0.5549543011487512
  0.2395326454424373  0.7590800974300907  0.3935981705411548
  0.2561351378944657  0.7442115291008813  0.6083544194756183
  0.7514744322492110  0.2707599520645322  0.3933891255810440
  0.7564416574939417  0.2491102938216501  0.6083012783151304
  0.2461490866261425  0.7270103204898097  0.5021930980321340
  0.7428017488735612  0.2321793422308278  0.5016177591229272
  0.1937058902802809  0.2253001167679664  0.4551843553879252
  0.7714898585268979  0.7205712662238350  0.4582145143677550
  0.6270639338754728  0.6656552604571300  0.3010251561256743
  0.7159018106118243  0.7387424602089963  0.3391111576282514
  0.6413293472336068  0.6968524730648323  0.2763654328447493
  0.7333705808027690  0.7715500122568648  0.3146434019393559
  0.3628258499152744  0.3115384785042550  0.2916467128625574
  0.3224658551130440  0.2757893979352762  0.3322804654833933
  0.3145617258949019  0.2626315568539740  0.2684677556249414
  0.2711773757205729  0.2247957111531834  0.3094442115834107
  0.3368915788843626  0.3342626561546261  0.7105477808996117
  0.2977847321329987  0.2970094889524865  0.6698992556469885
  0.2872913159395644  0.2866396083609539  0.7337208616137881
  0.2458330828601959  0.2469391372310281  0.6927438263626142
  0.6407721515819782  0.6429502999838786  0.6988604956302878
  0.7237451078261653  0.7290742407513751  0.6610380903438724
  0.6645124732308009  0.6601955632681165  0.7236411687664633
  0.7497450703446031  0.7485869192501621  0.6856351100083551
  0.2077663918782856  0.1828632647365568  0.5439045789876894
  0.8367750661201759  0.8084069287473425  0.5524190628098739
  0.2847741586928930  0.4364283840327419  0.4422206876073247
  0.4136475451120683  0.2887899025254254  0.4424939318419274
  0.2708932059904084  0.2910942710513046  0.4235842708909783
  0.2111212636388754  0.0997448603198308  0.4521999609531411
  0.2258296451881661  0.2552925752145437  0.4721137087427373
  0.0721073334200848  0.2570479287705026  0.4519610602312116
  0.5678017153769033  0.7959401415537042  0.4420516694895062
  0.7055067400022461  0.9355588342651223  0.4433621097725469
  0.7248801545905308  0.7856684219600124  0.4255099791279360
  0.8967219405677750  0.7428827134196030  0.4567112562376057
  0.7300479219505409  0.7560077990733133  0.4745435858348481
  0.7465917529062172  0.5961142690072683  0.4553088654857567
  0.5638087847392305  0.6200300645278524  0.2667896420520767
  0.6107506196149984  0.8192069047226520  0.2724194182825336
  0.5054627651661707  0.6833499454997520  0.3063764263133378
  0.5971334311843469  0.7633419329137358  0.3449660248357192
  0.7058620380644247  0.8960925884758136  0.3113219005143090
  0.8042087264545239  0.9591629439948984  0.3493956677697660
  0.8117724237107142  0.8183973426259240  0.3689298302454072
  0.8559433400253869  0.7532738667806762  0.3096988864783362
  0.9406542472422426  0.8168885506215396  0.3480228703251522
  0.7612817851377296  0.6766561818902228  0.2705959137834411
  0.6556638759227774  0.5419968408694882  0.3046166516048348
  0.7445034357272620  0.6161224300707813  0.3431283241770202
  0.3815328310931056  0.3260452947849332  0.2558586668240208
  0.3332902495593971  0.1361708054289489  0.2658925971934274
  0.4884699351869266  0.2897073802349406  0.2940517365309479
  0.4458714869834474  0.2483821135123809  0.3353491817523728
  0.2873560433765119  0.0968198460721352  0.3076269978887826
  0.2411836463860805  0.0725870807123915  0.3487204309812598
  0.2661934607570004  0.2300005096069569  0.3653614965018034
  0.1453654177822872  0.2480436042469930  0.3074228745071528
  0.1111569282322803  0.2198547474463919  0.3483879148116613
  0.1902402881053379  0.2868185174187344  0.2656208258431721
  0.3457656020800485  0.4390150492649854  0.2937734663920810
  0.3060064432663985  0.4026322096967878  0.3347837523689339
  0.3536959596267925  0.3505244823872310  0.7463416388854501
  0.1628706911680647  0.3111818996699725  0.7364188857912133
  0.3206412495442581  0.4617425995909914  0.7082859368942517
  0.2791156532375935  0.4232492433858711  0.6671242897576509
  0.1199194106133928  0.2698783005631845  0.6946776840855403
  0.0890589392791915  0.2319435904324483  0.6537069115909048
  0.2451007082518290  0.2476857627878880  0.6368112858009507
  0.2623297173039020  0.1190910938586587  0.6946603965923691
  0.2250380480057187  0.0904049849511001  0.6535378784328719
  0.3056670863512738  0.1602905567534171  0.7364355630887310
  0.4624865498981302  0.3116129401885903  0.7082874424794725
  0.4219682698257382  0.2718506382197195  0.6670933895723865
  0.5854958914201023  0.5831897941327790  0.7329396945092558
  0.7846971024229847  0.6299164472059586  0.7283661752166969
  0.6599683885132864  0.5199207595412954  0.6938817979915174
  0.7464242236094901  0.6080775678994803  0.6555828785712746
  0.8722097379611580  0.7205228600730387  0.6896486602308790
  0.9479212193756362  0.8084205293227928  0.6517818418531744
  0.8142198330736493  0.8193312472518680  0.6314977864028163
  0.7309763827684792  0.8725824051707961  0.6902800804039255
  0.8124708419169374  0.9517085241695157  0.6522202150418068
  0.6427882693111778  0.7816995153869677  0.7290152951467327
  0.5191695256845978  0.6712136640938111  0.6945068705466675
  0.6042534014221050  0.7608177571003408  0.6562285182303880
  0.2884461656129692  0.3909822627216208  0.5588867059157721
  0.2760756272215653  0.2376937387946116  0.5762452295477007
  0.4235095583882886  0.2498091596947559  0.5580025197727326
  0.2264311712768662  0.0566796421154694  0.5462134712074708
  0.0851230870726067  0.2125007063521067  0.5467352038817864
  0.2433753303660222  0.2187404084358716  0.5273322734114156
  0.6167447349246752  0.7401256325629294  0.5412611797861882
  0.7178288509811113  0.5902004043046261  0.5525577672244260
  0.6368914591724288  0.7291781386073733  0.5686942331954401
  0.9189125827265701  0.7691873783226417  0.5650684492764919
  0.8869027597640129  0.7941194071181695  0.5359407854586999
  0.8035050357609214  0.9310746133261315  0.5551832998938043
  0.2961777072666157  0.3154592267046304  0.4399450877448926
  0.6878805256180173  0.8152363520249091  0.4412698031390902
  0.8241389400908964  0.8397574325235181  0.3521656043431298
  0.2300675903232412  0.1945505683562154  0.3497613648218167
  0.2088996659843292  0.2118496193685477  0.6524198652853556
  0.8310636946801662  0.8333408821475592  0.6483415549592455
  0.3046456921538992  0.2697434790503819  0.5602331474000162
  0.6938557523910484  0.7097765684116513  0.5538316846545248
 
  0.00000000E+00  0.00000000E+00  0.00000000E+00
  0.00000000E+00  0.00000000E+00  0.00000000E+00
  0.00000000E+00  0.00000000E+00  0.00000000E+00
  0.00000000E+00  0.00000000E+00  0.00000000E+00
  0.00000000E+00  0.00000000E+00  0.00000000E+00
  0.00000000E+00  0.00000000E+00  0.00000000E+00
  0.00000000E+00  0.00000000E+00  0.00000000E+00
  0.00000000E+00  0.00000000E+00  0.00000000E+00
  0.00000000E+00  0.00000000E+00  0.00000000E+00
  0.00000000E+00  0.00000000E+00  0.00000000E+00
  0.00000000E+00  0.00000000E+00  0.00000000E+00
  0.00000000E+00  0.00000000E+00  0.00000000E+00
  0.00000000E+00  0.00000000E+00  0.00000000E+00
  0.00000000E+00  0.00000000E+00  0.00000000E+00
  0.00000000E+00  0.00000000E+00  0.00000000E+00
  0.00000000E+00  0.00000000E+00  0.00000000E+00
  0.00000000E+00  0.00000000E+00  0.00000000E+00
  0.00000000E+00  0.00000000E+00  0.00000000E+00
  0.00000000E+00  0.00000000E+00  0.00000000E+00
  0.00000000E+00  0.00000000E+00  0.00000000E+00
  0.00000000E+00  0.00000000E+00  0.00000000E+00
  0.00000000E+00  0.00000000E+00  0.00000000E+00
  0.00000000E+00  0.00000000E+00  0.00000000E+00
  0.00000000E+00  0.00000000E+00  0.00000000E+00
  0.00000000E+00  0.00000000E+00  0.00000000E+00
  0.00000000E+00  0.00000000E+00  0.00000000E+00
  0.00000000E+00  0.00000000E+00  0.00000000E+00
  0.00000000E+00  0.00000000E+00  0.00000000E+00
  0.00000000E+00  0.00000000E+00  0.00000000E+00
  0.00000000E+00  0.00000000E+00  0.00000000E+00
  0.00000000E+00  0.00000000E+00  0.00000000E+00
  0.00000000E+00  0.00000000E+00  0.00000000E+00
  0.00000000E+00  0.00000000E+00  0.00000000E+00
  0.00000000E+00  0.00000000E+00  0.00000000E+00
  0.00000000E+00  0.00000000E+00  0.00000000E+00
  0.00000000E+00  0.00000000E+00  0.00000000E+00
  0.00000000E+00  0.00000000E+00  0.00000000E+00
  0.00000000E+00  0.00000000E+00  0.00000000E+00
  0.00000000E+00  0.00000000E+00  0.00000000E+00
  0.00000000E+00  0.00000000E+00  0.00000000E+00
  0.00000000E+00  0.00000000E+00  0.00000000E+00
  0.00000000E+00  0.00000000E+00  0.00000000E+00
  0.00000000E+00  0.00000000E+00  0.00000000E+00
  0.00000000E+00  0.00000000E+00  0.00000000E+00
  0.00000000E+00  0.00000000E+00  0.00000000E+00
  0.00000000E+00  0.00000000E+00  0.00000000E+00
  0.00000000E+00  0.00000000E+00  0.00000000E+00
  0.00000000E+00  0.00000000E+00  0.00000000E+00
  0.00000000E+00  0.00000000E+00  0.00000000E+00
  0.00000000E+00  0.00000000E+00  0.00000000E+00
  0.00000000E+00  0.00000000E+00  0.00000000E+00
  0.00000000E+00  0.00000000E+00  0.00000000E+00
  0.00000000E+00  0.00000000E+00  0.00000000E+00
  0.00000000E+00  0.00000000E+00  0.00000000E+00
  0.00000000E+00  0.00000000E+00  0.00000000E+00
  0.00000000E+00  0.00000000E+00  0.00000000E+00
  0.00000000E+00  0.00000000E+00  0.00000000E+00
  0.00000000E+00  0.00000000E+00  0.00000000E+00
  0.00000000E+00  0.00000000E+00  0.00000000E+00
  0.00000000E+00  0.00000000E+00  0.00000000E+00
  0.00000000E+00  0.00000000E+00  0.00000000E+00
  0.00000000E+00  0.00000000E+00  0.00000000E+00
  0.00000000E+00  0.00000000E+00  0.00000000E+00
  0.00000000E+00  0.00000000E+00  0.00000000E+00
  0.00000000E+00  0.00000000E+00  0.00000000E+00
  0.00000000E+00  0.00000000E+00  0.00000000E+00
  0.00000000E+00  0.00000000E+00  0.00000000E+00
  0.00000000E+00  0.00000000E+00  0.00000000E+00
  0.00000000E+00  0.00000000E+00  0.00000000E+00
  0.00000000E+00  0.00000000E+00  0.00000000E+00
  0.00000000E+00  0.00000000E+00  0.00000000E+00
  0.00000000E+00  0.00000000E+00  0.00000000E+00
  0.00000000E+00  0.00000000E+00  0.00000000E+00
  0.00000000E+00  0.00000000E+00  0.00000000E+00
  0.00000000E+00  0.00000000E+00  0.00000000E+00
  0.00000000E+00  0.00000000E+00  0.00000000E+00
  0.00000000E+00  0.00000000E+00  0.00000000E+00
  0.00000000E+00  0.00000000E+00  0.00000000E+00
  0.00000000E+00  0.00000000E+00  0.00000000E+00
  0.00000000E+00  0.00000000E+00  0.00000000E+00
  0.00000000E+00  0.00000000E+00  0.00000000E+00
  0.00000000E+00  0.00000000E+00  0.00000000E+00
  0.00000000E+00  0.00000000E+00  0.00000000E+00
  0.00000000E+00  0.00000000E+00  0.00000000E+00
  0.00000000E+00  0.00000000E+00  0.00000000E+00
  0.00000000E+00  0.00000000E+00  0.00000000E+00
  0.00000000E+00  0.00000000E+00  0.00000000E+00
  0.00000000E+00  0.00000000E+00  0.00000000E+00
  0.00000000E+00  0.00000000E+00  0.00000000E+00
  0.00000000E+00  0.00000000E+00  0.00000000E+00
  0.00000000E+00  0.00000000E+00  0.00000000E+00
  0.00000000E+00  0.00000000E+00  0.00000000E+00
  0.00000000E+00  0.00000000E+00  0.00000000E+00
  0.00000000E+00  0.00000000E+00  0.00000000E+00
  0.00000000E+00  0.00000000E+00  0.00000000E+00
  0.00000000E+00  0.00000000E+00  0.00000000E+00
  0.00000000E+00  0.00000000E+00  0.00000000E+00
  0.00000000E+00  0.00000000E+00  0.00000000E+00
  0.00000000E+00  0.00000000E+00  0.00000000E+00
  0.00000000E+00  0.00000000E+00  0.00000000E+00
  0.00000000E+00  0.00000000E+00  0.00000000E+00
  0.00000000E+00  0.00000000E+00  0.00000000E+00
  0.00000000E+00  0.00000000E+00  0.00000000E+00
  0.00000000E+00  0.00000000E+00  0.00000000E+00
  0.00000000E+00  0.00000000E+00  0.00000000E+00
  0.00000000E+00  0.00000000E+00  0.00000000E+00
  0.00000000E+00  0.00000000E+00  0.00000000E+00
  0.00000000E+00  0.00000000E+00  0.00000000E+00
  0.00000000E+00  0.00000000E+00  0.00000000E+00
  0.00000000E+00  0.00000000E+00  0.00000000E+00
  0.00000000E+00  0.00000000E+00  0.00000000E+00
  0.00000000E+00  0.00000000E+00  0.00000000E+00
  0.00000000E+00  0.00000000E+00  0.00000000E+00
  0.00000000E+00  0.00000000E+00  0.00000000E+00
  0.00000000E+00  0.00000000E+00  0.00000000E+00
  0.00000000E+00  0.00000000E+00  0.00000000E+00
  0.00000000E+00  0.00000000E+00  0.00000000E+00
  0.00000000E+00  0.00000000E+00  0.00000000E+00
  0.00000000E+00  0.00000000E+00  0.00000000E+00
  0.00000000E+00  0.00000000E+00  0.00000000E+00
  0.00000000E+00  0.00000000E+00  0.00000000E+00
  0.00000000E+00  0.00000000E+00  0.00000000E+00
  0.00000000E+00  0.00000000E+00  0.00000000E+00
  0.00000000E+00  0.00000000E+00  0.00000000E+00
  0.00000000E+00  0.00000000E+00  0.00000000E+00
  0.00000000E+00  0.00000000E+00  0.00000000E+00
