POSCAR_PEAMA0x2                         
   1.00000000000000     
     8.5795546604673358    0.0000000000000000    0.0000000000000000
     0.0000000000000000    7.5880937319230419    0.0000000000000000
     0.0000000000000000    0.0000000000000000   52.6090011597000000
   I    Pb   C    H    N 
     8     2    32    48     4
Direct
  0.5748369870120340  0.5913135692666566  0.4886339140044296
  0.4408271648799956  0.0882348871519800  0.4872711867205509
  0.2266137507892753  0.7496889692838808  0.4363097222051430
  0.2772388154637851  0.7362519184371208  0.5599683006689566
  0.9167761914632701  0.8878988367487043  0.5078839398195860
  0.0988562351647588  0.3846677137052391  0.5065106845171874
  0.7885910321493550  0.2569547465279305  0.4369155025391218
  0.7371810023579132  0.2476838900694321  0.5604728044275068
  0.2501167838683775  0.7503241199002572  0.4982562935386833
  0.7625107679626136  0.2521047256633180  0.4985108045205854
  0.7961831700841459  0.8826531748012942  0.6737874050981256
  0.8191807261896741  0.7080974045620620  0.6662080682891072
  0.8375616593997185  0.6674890190306394  0.6404681670789343
  0.8349733032725546  0.8009972357960918  0.6220769825474616
  0.8112295706306319  0.9757874579241950  0.6298654671734906
  0.7917457540292857  0.0164093351401361  0.6555338609236271
  0.8467042708640744  0.7570694944103654  0.5941526153573894
  0.6823050628928723  0.7493839885762029  0.5832171131419762
  0.1971553174021186  0.1545958977275549  0.6745154937742828
  0.1661134738022070  0.3188799212946821  0.6636455732596838
  0.1532627619015253  0.3352972858737839  0.6372594437392594
  0.1697097844159773  0.1876160411675923  0.6215346582299203
  0.2016850285507545  0.0233073966627904  0.6326208579157302
  0.2154044418266795  0.0067882513529209  0.6589259172540515
  0.1623261750087013  0.2046228009008264  0.5929881353865106
  0.3273053226310215  0.2278312842190688  0.5827182105938205
  0.6980203871076632  0.8412883018909197  0.3220435010770286
  0.6660668210552620  0.6768806662260379  0.3328008145003460
  0.6509575259205650  0.6602087173985294  0.3591504546981499
  0.6658494168644082  0.8077388704109423  0.3749445797036732
  0.6990826426246959  0.9720836235499215  0.3639785907640754
  0.7150971358557193  0.9888871342967928  0.3377069034241476
  0.6555300669355255  0.7902458937864972  0.4034593724267429
  0.8191401431365403  0.7640629982844654  0.4141119632639168
  0.2888579046026851  0.1280610476901194  0.3222318360571770
  0.3113877281740741  0.3017708508521592  0.3302406845502626
  0.3337966703051879  0.3387392302246323  0.3560047756444858
  0.3358511704843649  0.2025640983458499  0.3739779728058268
  0.3119761699642510  0.0286859825927153  0.3657732279379282
  0.2885660665860922 -0.0083882851485791  0.3400872506577465
  0.3524967710261256  0.2426262345431386  0.4019497262504617
  0.1901805921866827  0.2469810021163432  0.4136718775264771
  0.7819430062150172  0.9145762043789251  0.6939306916200102
  0.8223382190711097  0.6026278289192032  0.6803869187654316
  0.8539155165202589  0.5302718983835286  0.6345555427594688
  0.8087361346133300  0.0809236905879684  0.6155767341649317
  0.7744792681250215  0.1534930244893696  0.6613378356405744
  0.9060022404197721  0.6293338407873371  0.5912630880011984
  0.9147837384927834  0.8581638753043054  0.5838729348530164
  0.6231849318048533  0.8773841589237583  0.5852535392876501
  0.6115735278365629  0.6483431705955552  0.5928844744378269
  0.5678194194897426  0.7128719932127044  0.5486680755611600
  0.7187230869126611  0.5736392685513396  0.5529574719149035
  0.7537714425950491  0.7864968681761523  0.5446492210671217
  0.2068744264697955  0.1415245764201366  0.6951646337914862
  0.1518300951058235  0.4351661250476160  0.6757224082287518
  0.1303171206815607  0.4645049577116399  0.6287390144934616
  0.2146636186342318  0.9071970351615912  0.6203854871725436
  0.2390627961131202  0.8776233030876484  0.6673229773909346
  0.0889311566697456  0.3172902978613159  0.5871772983077173
  0.1103807307461902  0.0846703839619295  0.5846054033881807
  0.4066308239783104  0.1286436626897350  0.5908724666022361
  0.3738819893145764  0.3597662481922601  0.5870042072179240
  0.4477052596959550  0.2243199262390172  0.5482537758249461
  0.2585570663159040  0.2876469278813308  0.5445111773675626
  0.3034551909770465  0.0734361715331593  0.5500535933165718
  0.7094520585573374  0.8545898062070401  0.3014214969028710
  0.6527782241133018  0.5607066957568526  0.3206744666318322
  0.6273913123795316  0.5308732947227696  0.3675767883766365
  0.7112479104599709  0.0880093934608367  0.3762671670084002
  0.7396076962966657  0.1181102522372944  0.3293994516155309
  0.5800743456734857  0.6787467909341126  0.4090350019032179
  0.6044237128544490  0.9108086872603958  0.4118022455577581
  0.9002254345102356  0.8630501873112136  0.4063797208578696
  0.8649354781546149  0.6319301238043917  0.4097209057037563
  0.9360661606991826  0.7630728301859492  0.4488266307789125
  0.7458999892973549  0.7018941424439280  0.4520350583103271
  0.7941220591805132  0.9158728499109476  0.4470375321509441
  0.2715260662787053  0.0989377626219349  0.3020642649938362
  0.3110813167276222  0.4093560534550302  0.3163927868349768
  0.3497453018093064  0.4752645672662711  0.3622702222373972
  0.3125262476545400  0.9215023867183777  0.3797476286566208
  0.2714133358037643  0.8552479828223652  0.3339366245723931
  0.4112610823566151  0.3706213057754331  0.4049217912675742
  0.4233242554094113  0.1409702281574286  0.4116033208190272
  0.1318912525128462  0.1184838751561846  0.4116446276337167
  0.1167887424154687  0.3482024507479844  0.4045906930303125
  0.0815273571496237  0.2778079713829927  0.4487637762521842
  0.2290268149823822  0.4202231847203632  0.4441631604287523
  0.2688833306491771  0.2071545787016471  0.4518399371654713
  0.6821435212351937  0.7044161189905987  0.5556077198486397
  0.3332485229504245  0.2036483692730041  0.5545629813742630
  0.8223847538893237  0.7856895445718510  0.4423173971915462
  0.1944411283573684  0.2890176110500762  0.4413632387061016
 
  0.00000000E+00  0.00000000E+00  0.00000000E+00
  0.00000000E+00  0.00000000E+00  0.00000000E+00
  0.00000000E+00  0.00000000E+00  0.00000000E+00
  0.00000000E+00  0.00000000E+00  0.00000000E+00
  0.00000000E+00  0.00000000E+00  0.00000000E+00
  0.00000000E+00  0.00000000E+00  0.00000000E+00
  0.00000000E+00  0.00000000E+00  0.00000000E+00
  0.00000000E+00  0.00000000E+00  0.00000000E+00
  0.00000000E+00  0.00000000E+00  0.00000000E+00
  0.00000000E+00  0.00000000E+00  0.00000000E+00
  0.00000000E+00  0.00000000E+00  0.00000000E+00
  0.00000000E+00  0.00000000E+00  0.00000000E+00
  0.00000000E+00  0.00000000E+00  0.00000000E+00
  0.00000000E+00  0.00000000E+00  0.00000000E+00
  0.00000000E+00  0.00000000E+00  0.00000000E+00
  0.00000000E+00  0.00000000E+00  0.00000000E+00
  0.00000000E+00  0.00000000E+00  0.00000000E+00
  0.00000000E+00  0.00000000E+00  0.00000000E+00
  0.00000000E+00  0.00000000E+00  0.00000000E+00
  0.00000000E+00  0.00000000E+00  0.00000000E+00
  0.00000000E+00  0.00000000E+00  0.00000000E+00
  0.00000000E+00  0.00000000E+00  0.00000000E+00
  0.00000000E+00  0.00000000E+00  0.00000000E+00
  0.00000000E+00  0.00000000E+00  0.00000000E+00
  0.00000000E+00  0.00000000E+00  0.00000000E+00
  0.00000000E+00  0.00000000E+00  0.00000000E+00
  0.00000000E+00  0.00000000E+00  0.00000000E+00
  0.00000000E+00  0.00000000E+00  0.00000000E+00
  0.00000000E+00  0.00000000E+00  0.00000000E+00
  0.00000000E+00  0.00000000E+00  0.00000000E+00
  0.00000000E+00  0.00000000E+00  0.00000000E+00
  0.00000000E+00  0.00000000E+00  0.00000000E+00
  0.00000000E+00  0.00000000E+00  0.00000000E+00
  0.00000000E+00  0.00000000E+00  0.00000000E+00
  0.00000000E+00  0.00000000E+00  0.00000000E+00
  0.00000000E+00  0.00000000E+00  0.00000000E+00
  0.00000000E+00  0.00000000E+00  0.00000000E+00
  0.00000000E+00  0.00000000E+00  0.00000000E+00
  0.00000000E+00  0.00000000E+00  0.00000000E+00
  0.00000000E+00  0.00000000E+00  0.00000000E+00
  0.00000000E+00  0.00000000E+00  0.00000000E+00
  0.00000000E+00  0.00000000E+00  0.00000000E+00
  0.00000000E+00  0.00000000E+00  0.00000000E+00
  0.00000000E+00  0.00000000E+00  0.00000000E+00
  0.00000000E+00  0.00000000E+00  0.00000000E+00
  0.00000000E+00  0.00000000E+00  0.00000000E+00
  0.00000000E+00  0.00000000E+00  0.00000000E+00
  0.00000000E+00  0.00000000E+00  0.00000000E+00
  0.00000000E+00  0.00000000E+00  0.00000000E+00
  0.00000000E+00  0.00000000E+00  0.00000000E+00
  0.00000000E+00  0.00000000E+00  0.00000000E+00
  0.00000000E+00  0.00000000E+00  0.00000000E+00
  0.00000000E+00  0.00000000E+00  0.00000000E+00
  0.00000000E+00  0.00000000E+00  0.00000000E+00
  0.00000000E+00  0.00000000E+00  0.00000000E+00
  0.00000000E+00  0.00000000E+00  0.00000000E+00
  0.00000000E+00  0.00000000E+00  0.00000000E+00
  0.00000000E+00  0.00000000E+00  0.00000000E+00
  0.00000000E+00  0.00000000E+00  0.00000000E+00
  0.00000000E+00  0.00000000E+00  0.00000000E+00
  0.00000000E+00  0.00000000E+00  0.00000000E+00
  0.00000000E+00  0.00000000E+00  0.00000000E+00
  0.00000000E+00  0.00000000E+00  0.00000000E+00
  0.00000000E+00  0.00000000E+00  0.00000000E+00
  0.00000000E+00  0.00000000E+00  0.00000000E+00
  0.00000000E+00  0.00000000E+00  0.00000000E+00
  0.00000000E+00  0.00000000E+00  0.00000000E+00
  0.00000000E+00  0.00000000E+00  0.00000000E+00
  0.00000000E+00  0.00000000E+00  0.00000000E+00
  0.00000000E+00  0.00000000E+00  0.00000000E+00
  0.00000000E+00  0.00000000E+00  0.00000000E+00
  0.00000000E+00  0.00000000E+00  0.00000000E+00
  0.00000000E+00  0.00000000E+00  0.00000000E+00
  0.00000000E+00  0.00000000E+00  0.00000000E+00
  0.00000000E+00  0.00000000E+00  0.00000000E+00
  0.00000000E+00  0.00000000E+00  0.00000000E+00
  0.00000000E+00  0.00000000E+00  0.00000000E+00
  0.00000000E+00  0.00000000E+00  0.00000000E+00
  0.00000000E+00  0.00000000E+00  0.00000000E+00
  0.00000000E+00  0.00000000E+00  0.00000000E+00
  0.00000000E+00  0.00000000E+00  0.00000000E+00
  0.00000000E+00  0.00000000E+00  0.00000000E+00
  0.00000000E+00  0.00000000E+00  0.00000000E+00
  0.00000000E+00  0.00000000E+00  0.00000000E+00
  0.00000000E+00  0.00000000E+00  0.00000000E+00
  0.00000000E+00  0.00000000E+00  0.00000000E+00
  0.00000000E+00  0.00000000E+00  0.00000000E+00
  0.00000000E+00  0.00000000E+00  0.00000000E+00
  0.00000000E+00  0.00000000E+00  0.00000000E+00
  0.00000000E+00  0.00000000E+00  0.00000000E+00
  0.00000000E+00  0.00000000E+00  0.00000000E+00
  0.00000000E+00  0.00000000E+00  0.00000000E+00
  0.00000000E+00  0.00000000E+00  0.00000000E+00
  0.00000000E+00  0.00000000E+00  0.00000000E+00
