POSCAR_BAMA0_x2                         
   1.00000000000000     
     8.5672056929460307    0.0000000000000000    0.0000000000000000
     0.0000000000000000    8.1003980103093376    0.0000000000000000
     0.0000000000000000    0.0000000000000000   48.1389999390000014
   I    Pb   C    H    N 
     8     2    16    48     4
Direct
  0.3958382852565699  0.3795985158904096  0.4970925664913122
  0.6038927234961627  0.8796261872323501  0.5027849349181820
  0.2611319219337365  0.7872635891407610  0.4332407430707693
  0.2427965720552731  0.7433869188716201  0.5690438167911179
  0.0461526004773549  0.0446273797047615  0.5056066949897802
  0.9535513080136739  0.5446962100289080  0.4942851765920263
  0.7570085913684392  0.2434833802744532  0.4308470534055661
  0.7386657047613320  0.2874375664273588  0.5666297520670220
  0.2672308539248579  0.7431028731346622  0.5005703512848949
  0.7325375285673619  0.2431330935492726  0.4993087401127033
  0.6521421258737288  0.6835071048892618  0.3745981728935890
  0.7322231306377537  0.7410816838962622  0.4239898788766612
  0.6914309443860558  0.7044949024776073  0.3438443710411521
  0.7752836184534165  0.7613648297643424  0.3935345304307278
  0.3353536061453455  0.3018636667158633  0.3675582743549180
  0.2790422411124429  0.2889571993806799  0.4188052561037593
  0.2840979847785833  0.2506370960099824  0.3384183905617125
  0.2236462806032747  0.2390720291777442  0.3900049467735461
  0.3477996464763332  0.1832808126848851  0.6252789161071380
  0.2676521776122708  0.2409817357874265  0.5758924467617952
  0.3086512092078146  0.2042691665255748  0.6560307830735015
  0.2246951665427882  0.2612402358393310  0.6063535408529998
  0.6647912051330581  0.8020545750834162  0.6323483193435876
  0.7208522875333393  0.7891804605367493  0.5810929951902085
  0.7161824327725247  0.7507344387815609  0.6614779269681559
  0.7763519501176592  0.7392630269288699  0.6098857939606744
  0.6018777400261095  0.6477676723673049  0.3304706497014299
  0.6997093343953401  0.8363715862245588  0.3382573394663320
  0.5373890785026494  0.7399935629991928  0.3791287047357762
  0.6170825865699494  0.7953685941519706  0.4285708301730537
  0.7870357188541992  0.8944678267876094  0.3886641248576080
  0.8390570634710286  0.9559289727849397  0.4391255380979052
  0.8253796234733533  0.8042364628374654  0.4630295934887355
  0.8906300830655595  0.7039906382094574  0.3896240477492546
  0.9630961363515598  0.7918646944902387  0.4381726631801494
  0.8045497987917609  0.6465730336183981  0.3387819046468566
  0.6410302933612130  0.5509325795728659  0.3797277124249013
  0.7303922120654478  0.6101988178216260  0.4302444992880110
  0.3655727979053677  0.2961642830907295  0.3224570548804462
  0.2782948087376932  0.1149955920675456  0.3365763026643888
  0.4539055064261574  0.2540883007566535  0.3718492150696782
  0.3979366322572622  0.2431832360230270  0.4230195782548604
  0.2151194254396250  0.1028658549375287  0.3888281257455192
  0.1860745255837281  0.0889575898628827  0.4411420639016049
  0.2094747647461302  0.2604909946181221  0.4604973318130726
  0.1048738920552278  0.2883797380622868  0.3863300712900379
  0.0578561145231296  0.2471365206521396  0.4379493178740950
  0.1671588568128516  0.2997573631403680  0.3335141515301346
  0.3435125720336565  0.4379370294595893  0.3688932166007235
  0.2792077906434187  0.4240349276353952  0.4215586728225922
  0.3981841675684002  0.1474383876463611  0.6693991327152431
  0.3005241789477792  0.3361648430787624  0.6616297109272212
  0.4626046852607783  0.2396660166103717  0.6207348581501521
  0.3827717765708020  0.2952382051045472  0.5713009098056190
  0.2130222729342271  0.3943276462176925  0.6112297092845607
  0.1608167449562595  0.4558614202184172  0.5607712440409591
  0.1744560994521724  0.3042576960121107  0.5368582749748324
  0.1093431398267175  0.2039494481415713  0.6102691373608589
  0.0367710141170939  0.2918421596163039  0.5617158375618654
  0.1955029673829774  0.1464926080370942  0.6611081030025869
  0.3588229745408229  0.0507093444661836  0.6201455607081167
  0.2694569924397537  0.1101285716099642  0.5696320595705680
  0.6348156662762167  0.7962459520293579  0.6774601072694884
  0.7219652030966885  0.6150715952088319  0.6633084549638651
  0.5462063686558635  0.7543283674961873  0.6280761740984065
  0.6019186625591697  0.7434694443336688  0.5768923264751327
  0.7848726871032643  0.6030596736480847  0.6110577714251655
  0.8135482868615748  0.5891348880123085  0.5587270441499366
  0.7903627645912944  0.7608025007114498  0.5393893990411067
  0.8951460744875867  0.7885334797886981  0.6135419800230605
  0.9419640713269690  0.7471237983958761  0.5619404684773717
  0.8331777953326099  0.7997924898393097  0.6663643348500154
  0.6566727110126578  0.9381281092550974  0.6310257715766965
  0.7207286080046528  0.9242610931452412  0.5783390705851310
  0.8476983335290122  0.8276250170113461  0.4421425010634284
  0.1759009393050856  0.2180858610231723  0.4408891969732392
  0.1521735561530039  0.3275756458554408  0.5577478618526067
  0.8238721363729817  0.7182614435804721  0.5589959437981314
 
  0.00000000E+00  0.00000000E+00  0.00000000E+00
  0.00000000E+00  0.00000000E+00  0.00000000E+00
  0.00000000E+00  0.00000000E+00  0.00000000E+00
  0.00000000E+00  0.00000000E+00  0.00000000E+00
  0.00000000E+00  0.00000000E+00  0.00000000E+00
  0.00000000E+00  0.00000000E+00  0.00000000E+00
  0.00000000E+00  0.00000000E+00  0.00000000E+00
  0.00000000E+00  0.00000000E+00  0.00000000E+00
  0.00000000E+00  0.00000000E+00  0.00000000E+00
  0.00000000E+00  0.00000000E+00  0.00000000E+00
  0.00000000E+00  0.00000000E+00  0.00000000E+00
  0.00000000E+00  0.00000000E+00  0.00000000E+00
  0.00000000E+00  0.00000000E+00  0.00000000E+00
  0.00000000E+00  0.00000000E+00  0.00000000E+00
  0.00000000E+00  0.00000000E+00  0.00000000E+00
  0.00000000E+00  0.00000000E+00  0.00000000E+00
  0.00000000E+00  0.00000000E+00  0.00000000E+00
  0.00000000E+00  0.00000000E+00  0.00000000E+00
  0.00000000E+00  0.00000000E+00  0.00000000E+00
  0.00000000E+00  0.00000000E+00  0.00000000E+00
  0.00000000E+00  0.00000000E+00  0.00000000E+00
  0.00000000E+00  0.00000000E+00  0.00000000E+00
  0.00000000E+00  0.00000000E+00  0.00000000E+00
  0.00000000E+00  0.00000000E+00  0.00000000E+00
  0.00000000E+00  0.00000000E+00  0.00000000E+00
  0.00000000E+00  0.00000000E+00  0.00000000E+00
  0.00000000E+00  0.00000000E+00  0.00000000E+00
  0.00000000E+00  0.00000000E+00  0.00000000E+00
  0.00000000E+00  0.00000000E+00  0.00000000E+00
  0.00000000E+00  0.00000000E+00  0.00000000E+00
  0.00000000E+00  0.00000000E+00  0.00000000E+00
  0.00000000E+00  0.00000000E+00  0.00000000E+00
  0.00000000E+00  0.00000000E+00  0.00000000E+00
  0.00000000E+00  0.00000000E+00  0.00000000E+00
  0.00000000E+00  0.00000000E+00  0.00000000E+00
  0.00000000E+00  0.00000000E+00  0.00000000E+00
  0.00000000E+00  0.00000000E+00  0.00000000E+00
  0.00000000E+00  0.00000000E+00  0.00000000E+00
  0.00000000E+00  0.00000000E+00  0.00000000E+00
  0.00000000E+00  0.00000000E+00  0.00000000E+00
  0.00000000E+00  0.00000000E+00  0.00000000E+00
  0.00000000E+00  0.00000000E+00  0.00000000E+00
  0.00000000E+00  0.00000000E+00  0.00000000E+00
  0.00000000E+00  0.00000000E+00  0.00000000E+00
  0.00000000E+00  0.00000000E+00  0.00000000E+00
  0.00000000E+00  0.00000000E+00  0.00000000E+00
  0.00000000E+00  0.00000000E+00  0.00000000E+00
  0.00000000E+00  0.00000000E+00  0.00000000E+00
  0.00000000E+00  0.00000000E+00  0.00000000E+00
  0.00000000E+00  0.00000000E+00  0.00000000E+00
  0.00000000E+00  0.00000000E+00  0.00000000E+00
  0.00000000E+00  0.00000000E+00  0.00000000E+00
  0.00000000E+00  0.00000000E+00  0.00000000E+00
  0.00000000E+00  0.00000000E+00  0.00000000E+00
  0.00000000E+00  0.00000000E+00  0.00000000E+00
  0.00000000E+00  0.00000000E+00  0.00000000E+00
  0.00000000E+00  0.00000000E+00  0.00000000E+00
  0.00000000E+00  0.00000000E+00  0.00000000E+00
  0.00000000E+00  0.00000000E+00  0.00000000E+00
  0.00000000E+00  0.00000000E+00  0.00000000E+00
  0.00000000E+00  0.00000000E+00  0.00000000E+00
  0.00000000E+00  0.00000000E+00  0.00000000E+00
  0.00000000E+00  0.00000000E+00  0.00000000E+00
  0.00000000E+00  0.00000000E+00  0.00000000E+00
  0.00000000E+00  0.00000000E+00  0.00000000E+00
  0.00000000E+00  0.00000000E+00  0.00000000E+00
  0.00000000E+00  0.00000000E+00  0.00000000E+00
  0.00000000E+00  0.00000000E+00  0.00000000E+00
  0.00000000E+00  0.00000000E+00  0.00000000E+00
  0.00000000E+00  0.00000000E+00  0.00000000E+00
  0.00000000E+00  0.00000000E+00  0.00000000E+00
  0.00000000E+00  0.00000000E+00  0.00000000E+00
  0.00000000E+00  0.00000000E+00  0.00000000E+00
  0.00000000E+00  0.00000000E+00  0.00000000E+00
  0.00000000E+00  0.00000000E+00  0.00000000E+00
  0.00000000E+00  0.00000000E+00  0.00000000E+00
  0.00000000E+00  0.00000000E+00  0.00000000E+00
  0.00000000E+00  0.00000000E+00  0.00000000E+00
