MAPbI3 tetragonal T=300 K               
   1.00000000000000     
    25.0541992188000009    0.0000000000000000    0.0000000000000000
     0.0000000000000000   25.0542068481000015    0.0000000000000000
     0.0000000000000000    0.0000000000000000   25.3479995727999992
   C    H    I    N    Pb
    64   384   192    64    64
Direct
  0.1349345250903644  0.1077975427600776  0.1506802359207772
  0.1349345250903644  0.1077975427600776  0.6506802209207798
  0.1349345250903644  0.6077975277600798  0.1506802359207772
  0.1349345250903644  0.6077975277600798  0.6506802209207798
  0.6349344950903625  0.1077975427600776  0.1506802359207772
  0.6349344950903625  0.1077975427600776  0.6506802209207798
  0.6349344950903625  0.6077975277600798  0.1506802359207772
  0.6349344950903626  0.6077975277600798  0.6506802209207798
  0.3849345250903650  0.3577975277600802  0.1506802359207772
  0.3849345250903650  0.3577975277600802  0.6506802209207798
  0.3849345250903650  0.8577975277600798  0.1506802359207772
  0.3849345250903650  0.8577975277600798  0.6506802209207798
  0.8849344950903625  0.3577975277600801  0.1506802359207772
  0.8849344950903625  0.3577975277600801  0.6506802209207798
  0.8849344950903625  0.8577975277600798  0.1506802359207772
  0.8849344950903625  0.8577975277600798  0.6506802209207798
  0.1541825746979738  0.3773576982932637  0.1452658706988436
  0.1541825746979738  0.3773576982932637  0.6452658706988444
  0.1541825746979738  0.8773576692932646  0.1452658706988436
  0.1541825746979739  0.8773576692932646  0.6452658706988444
  0.6541825746979758  0.3773576982932637  0.1452658706988436
  0.6541825746979757  0.3773576982932637  0.6452658706988444
  0.6541825746979758  0.8773576692932648  0.1452658706988436
  0.6541825746979757  0.8773576692932646  0.6452658706988444
  0.4041825746979735  0.1273576692932645  0.1452658706988436
  0.4041825746979735  0.1273576692932645  0.6452658706988444
  0.4041825746979735  0.6273576692932646  0.1452658706988436
  0.4041825746979735  0.6273576692932648  0.6452658706988444
  0.9041825746979758  0.1273576692932645  0.1452658706988436
  0.9041825746979758  0.1273576692932644  0.6452658706988444
  0.9041825746979758  0.6273576692932646  0.1452658706988436
  0.9041825746979758  0.6273576692932646  0.6452658706988444
  0.1508937704920508  0.1242564036522882  0.3967248406781136
  0.1508937704920508  0.1242564036522882  0.8967248406781124
  0.1508937704920508  0.6242563746522820  0.3967248406781136
  0.1508937704920508  0.6242563746522820  0.8967248406781124
  0.6508937414920443  0.1242564036522882  0.3967248406781136
  0.6508937414920443  0.1242564036522882  0.8967248406781124
  0.6508937414920443  0.6242563746522818  0.3967248406781136
  0.6508937414920443  0.6242563746522820  0.8967248406781124
  0.4008937704920507  0.3742564036522883  0.3967248406781136
  0.4008937704920507  0.3742564036522883  0.8967248406781124
  0.4008937704920507  0.8742563746522820  0.3967248406781136
  0.4008937704920507  0.8742563746522820  0.8967248406781124
  0.9008937414920443  0.3742564036522883  0.3967248406781136
  0.9008937414920443  0.3742564036522883  0.8967248406781124
  0.9008937414920443  0.8742563746522820  0.3967248406781136
  0.9008937414920443  0.8742563746522820  0.8967248406781124
  0.1351698321900114  0.3956805830328792  0.3960463426122282
  0.1351698321900114  0.3956805830328792  0.8960463726122229
  0.1351698321900114  0.8956806120328774  0.3960463426122281
  0.1351698321900114  0.8956806120328774  0.8960463726122229
  0.6351698021900095  0.3956805830328792  0.3960463426122281
  0.6351698021900095  0.3956805830328792  0.8960463726122229
  0.6351698021900095  0.8956806120328774  0.3960463426122281
  0.6351698021900095  0.8956806120328774  0.8960463726122229
  0.3851698321900118  0.1456806120328774  0.3960463426122281
  0.3851698321900118  0.1456806120328775  0.8960463726122229
  0.3851698321900118  0.6456806120328774  0.3960463426122281
  0.3851698321900118  0.6456806120328774  0.8960463726122229
  0.8851698021900095  0.1456806120328774  0.3960463426122281
  0.8851698021900095  0.1456806120328775  0.8960463726122229
  0.8851698021900095  0.6456806120328774  0.3960463426122281
  0.8851698021900095  0.6456806120328774  0.8960463726122229
  0.4048708640607392  0.0973062884095905  0.1764823659080504
  0.4048708640607392  0.0973062884095905  0.6764823509080522
  0.4048708640607392  0.5973062884095891  0.1764823659080503
  0.4048708640607392  0.5973062884095891  0.6764823509080522
  0.9048708640607377  0.0973062884095905  0.1764823659080504
  0.9048708640607379  0.0973062884095905  0.6764823509080522
  0.9048708640607380  0.5973062884095892  0.1764823659080504
  0.9048708640607380  0.5973062884095891  0.6764823509080522
  0.1548708640607391  0.3473062884095904  0.1764823659080502
  0.1548708640607391  0.3473062884095904  0.6764823509080522
  0.1548708640607391  0.8473062884095891  0.1764823659080504
  0.1548708640607391  0.8473062884095892  0.6764823509080522
  0.6548708640607379  0.3473062884095905  0.1764823659080502
  0.6548708640607380  0.3473062884095903  0.6764823509080522
  0.6548708640607379  0.8473062884095891  0.1764823659080504
  0.6548708640607379  0.8473062884095891  0.6764823509080522
  0.1626592405392595  0.4169323469087546  0.1613618762743853
  0.1626592405392592  0.4169323469087546  0.6613619052743912
  0.1626592405392592  0.9169323169087593  0.1613618762743851
  0.1626592405392592  0.9169323169087593  0.6613619052743912
  0.6626592555392582  0.4169323469087546  0.1613618762743853
  0.6626592555392581  0.4169323469087546  0.6613619052743912
  0.6626592555392582  0.9169323169087593  0.1613618762743853
  0.6626592555392582  0.9169323169087593  0.6613619052743913
  0.4126592555392566  0.1669323169087599  0.1613618762743850
  0.4126592555392566  0.1669323169087599  0.6613619052743913
  0.4126592555392565  0.6669323169087593  0.1613618762743853
  0.4126592555392566  0.6669323169087592  0.6613619052743912
  0.9126592555392581  0.1669323169087600  0.1613618762743852
  0.9126592555392582  0.1669323169087599  0.6613619052743912
  0.9126592555392580  0.6669323169087593  0.1613618762743853
  0.9126592555392583  0.6669323169087592  0.6613619052743912
  0.1838281622786088  0.3678897872487319  0.1151556448861871
  0.1838281622786086  0.3678897872487318  0.6151556518861840
  0.1838281622786086  0.8678897572487296  0.1151556448861871
  0.1838281622786088  0.8678897572487296  0.6151556518861840
  0.6838281322786062  0.3678897872487320  0.1151556448861871
  0.6838281322786064  0.3678897872487319  0.6151556518861840
  0.6838281322786064  0.8678897572487296  0.1151556448861872
  0.6838281322786063  0.8678897572487295  0.6151556518861839
  0.4338281622786092  0.1178897572487293  0.1151556448861872
  0.4338281622786090  0.1178897572487292  0.6151556518861840
  0.4338281622786090  0.6178897572487295  0.1151556448861872
  0.4338281622786093  0.6178897572487296  0.6151556518861840
  0.9338281322786062  0.1178897572487293  0.1151556448861871
  0.9338281322786064  0.1178897572487293  0.6151556518861840
  0.9338281322786063  0.6178897572487296  0.1151556448861871
  0.9338281322786063  0.6178897572487295  0.6151556518861840
  0.3205969930455707  0.1331056434862708  0.1491424049648662
  0.3205969930455707  0.1331056434862709  0.6491424279648652
  0.3205969930455707  0.6331056584862682  0.1491424049648661
  0.3205969930455707  0.6331056584862682  0.6491424279648652
  0.8205969930455710  0.1331056434862709  0.1491424049648662
  0.8205969930455712  0.1331056434862709  0.6491424279648651
  0.8205969930455709  0.6331056584862682  0.1491424049648662
  0.8205969930455710  0.6331056584862683  0.6491424279648651
  0.0705969930455712  0.3831056584862680  0.1491424049648662
  0.0705969930455713  0.3831056584862680  0.6491424279648652
  0.0705969930455713  0.8831056584862683  0.1491424049648662
  0.0705969930455713  0.8831056584862683  0.6491424279648651
  0.5705969930455710  0.3831056584862680  0.1491424049648662
  0.5705969930455709  0.3831056584862680  0.6491424279648651
  0.5705969930455710  0.8831056584862682  0.1491424049648662
  0.5705969930455710  0.8831056584862682  0.6491424279648652
  0.3420311349875475  0.0935403350146790  0.1002533891247479
  0.3420311349875475  0.0935403350146790  0.6002533711247463
  0.3420311349875475  0.5935403200146819  0.1002533891247478
  0.3420311349875475  0.5935403200146819  0.6002533711247463
  0.8420311349875487  0.0935403350146790  0.1002533891247478
  0.8420311349875487  0.0935403350146791  0.6002533711247463
  0.8420311349875487  0.5935403200146819  0.1002533891247479
  0.8420311349875487  0.5935403200146819  0.6002533711247463
  0.0920311349875475  0.3435403200146814  0.1002533891247478
  0.0920311349875475  0.3435403200146814  0.6002533711247463
  0.0920311349875475  0.8435403200146819  0.1002533891247478
  0.0920311349875475  0.8435403200146819  0.6002533711247463
  0.5920311349875487  0.3435403200146814  0.1002533891247478
  0.5920311349875487  0.3435403200146814  0.6002533711247463
  0.5920311349875487  0.8435403200146819  0.1002533891247479
  0.5920311349875487  0.8435403200146819  0.6002533711247463
  0.3473175797612632  0.1601251920835533  0.0935511534373613
  0.3473175797612631  0.1601251920835533  0.5935511834373638
  0.3473175797612631  0.6601251920835534  0.0935511534373613
  0.3473175797612630  0.6601251920835531  0.5935511834373636
  0.8473176097612648  0.1601251920835532  0.0935511534373613
  0.8473176097612648  0.1601251920835531  0.5935511834373637
  0.8473176097612648  0.6601251920835532  0.0935511534373613
  0.8473176097612648  0.6601251920835531  0.5935511834373637
  0.0973176097612651  0.4101251920835535  0.0935511534373613
  0.0973176097612651  0.4101251920835535  0.5935511834373637
  0.0973176097612651  0.9101251920835531  0.0935511534373613
  0.0973176097612650  0.9101251920835531  0.5935511834373636
  0.5973176097612648  0.4101251920835535  0.0935511534373613
  0.5973176097612648  0.4101251920835534  0.5935511834373637
  0.5973176097612648  0.9101251920835531  0.0935511534373613
  0.5973176097612648  0.9101251920835534  0.5935511834373638
  0.3478745554722085  0.3587086085431386  0.0760696009360507
  0.3478745554722085  0.3587086085431386  0.5760696309360450
  0.3478745554722085  0.8587085785431358  0.0760696009360507
  0.3478745554722084  0.8587085785431358  0.5760696309360450
  0.8478745554722078  0.3587086085431386  0.0760696009360507
  0.8478745554722078  0.3587086085431386  0.5760696309360450
  0.8478745554722078  0.8587085785431358  0.0760696009360507
  0.8478745554722078  0.8587085785431354  0.5760696309360450
  0.0978745554722085  0.1087085785431360  0.0760696009360507
  0.0978745554722085  0.1087085785431360  0.5760696309360450
  0.0978745554722085  0.6087085785431358  0.0760696009360507
  0.0978745554722085  0.6087085785431354  0.5760696309360449
  0.5978745554722078  0.1087085785431360  0.0760696009360507
  0.5978745554722078  0.1087085785431360  0.5760696309360450
  0.5978745554722078  0.6087085785431358  0.0760696009360507
  0.5978745554722078  0.6087085785431358  0.5760696309360450
  0.3998624663292072  0.4000599230954876  0.0807315323096323
  0.3998624663292071  0.4000599230954876  0.5807315323096323
  0.3998624663292072  0.9000599230954867  0.0807315323096323
  0.3998624663292072  0.9000599230954867  0.5807315323096323
  0.8998624663292054  0.4000599230954876  0.0807315323096323
  0.8998624663292054  0.4000599230954876  0.5807315323096323
  0.8998624663292054  0.9000599230954867  0.0807315323096323
  0.8998624663292053  0.9000599230954867  0.5807315323096323
  0.1498624663292064  0.1500599230954870  0.0807315323096323
  0.1498624663292064  0.1500599230954869  0.5807315323096323
  0.1498624663292065  0.6500599230954867  0.0807315323096323
  0.1498624663292065  0.6500599230954867  0.5807315323096323
  0.6498624663292055  0.1500599230954869  0.0807315323096323
  0.6498624663292054  0.1500599230954869  0.5807315323096323
  0.6498624663292054  0.6500599230954867  0.0807315323096323
  0.6498624663292054  0.6500599230954867  0.5807315323096323
  0.3414536251730955  0.4171031554198679  0.1085339477744028
  0.3414536251730955  0.4171031554198679  0.6085339477744037
  0.3414536251730955  0.9171031554198689  0.1085339477744028
  0.3414536251730954  0.9171031554198689  0.6085339477744037
  0.8414536251730959  0.4171031554198680  0.1085339477744028
  0.8414536251730959  0.4171031554198679  0.6085339477744035
  0.8414536251730959  0.9171031554198689  0.1085339477744028
  0.8414536251730959  0.9171031554198689  0.6085339477744037
  0.0914536251730956  0.1671031554198682  0.1085339477744028
  0.0914536251730956  0.1671031554198681  0.6085339477744035
  0.0914536251730956  0.6671031554198689  0.1085339477744028
  0.0914536251730956  0.6671031554198689  0.6085339477744037
  0.5914536251730959  0.1671031554198682  0.1085339477744028
  0.5914536251730959  0.1671031554198682  0.6085339477744037
  0.5914536251730959  0.6671031554198689  0.1085339477744028
  0.5914536251730959  0.6671031554198689  0.6085339477744035
  0.1550778661533519  0.0706372765122204  0.1399525612548919
  0.1550778661533519  0.0706372765122204  0.6399525462548936
  0.1550778661533519  0.5706372465122175  0.1399525612548918
  0.1550778661533519  0.5706372465122175  0.6399525462548936
  0.6550778361533564  0.0706372765122202  0.1399525612548919
  0.6550778361533568  0.0706372765122204  0.6399525462548938
  0.6550778361533564  0.5706372465122175  0.1399525612548919
  0.6550778361533567  0.5706372465122175  0.6399525462548938
  0.4050778661533528  0.3206372765122205  0.1399525612548918
  0.4050778661533528  0.3206372765122205  0.6399525462548936
  0.4050778661533528  0.8206372465122175  0.1399525612548919
  0.4050778661533528  0.8206372465122175  0.6399525462548936
  0.9050778361533564  0.3206372765122205  0.1399525612548919
  0.9050778361533564  0.3206372765122205  0.6399525462548938
  0.9050778361533564  0.8206372465122175  0.1399525612548919
  0.9050778361533567  0.8206372465122175  0.6399525462548938
  0.3502425280217940  0.3496213147420783  0.1755844961919566
  0.3502425280217937  0.3496213147420783  0.6755844961919559
  0.3502425280217938  0.8496213147420785  0.1755844961919566
  0.3502425280217939  0.8496213147420785  0.6755844961919559
  0.8502425280217951  0.3496213147420783  0.1755844961919567
  0.8502425280217948  0.3496213147420783  0.6755844961919560
  0.8502425280217951  0.8496213147420787  0.1755844961919566
  0.8502425280217951  0.8496213147420784  0.6755844961919559
  0.1002425280217941  0.0996213147420784  0.1755844961919567
  0.1002425280217940  0.0996213147420785  0.6755844961919559
  0.1002425280217942  0.5996213147420787  0.1755844961919567
  0.1002425280217941  0.5996213147420784  0.6755844961919559
  0.6002425280217951  0.0996213147420784  0.1755844961919566
  0.6002425280217948  0.0996213147420783  0.6755844961919559
  0.6002425280217951  0.5996213147420784  0.1755844961919566
  0.6002425280217951  0.5996213147420785  0.6755844961919559
  0.1625805551291120  0.1343210377407481  0.1713785387603212
  0.1625805551291120  0.1343210377407481  0.6713785237603169
  0.1625805551291121  0.6343210447407529  0.1713785387603212
  0.1625805551291120  0.6343210447407529  0.6713785237603169
  0.6625805701291085  0.1343210377407481  0.1713785387603212
  0.6625805701291085  0.1343210377407480  0.6713785237603170
  0.6625805701291085  0.6343210447407529  0.1713785387603212
  0.6625805701291085  0.6343210447407529  0.6713785237603169
  0.4125805701291101  0.3843210447407518  0.1713785387603212
  0.4125805701291101  0.3843210447407518  0.6713785237603169
  0.4125805701291102  0.8843210447407529  0.1713785387603212
  0.4125805701291104  0.8843210447407529  0.6713785237603169
  0.9125805701291085  0.3843210447407518  0.1713785387603212
  0.9125805701291085  0.3843210447407518  0.6713785237603170
  0.9125805701291085  0.8843210447407529  0.1713785387603212
  0.9125805701291085  0.8843210447407528  0.6713785237603169
  0.3498311541406046  0.3320970246709643  0.3456456558830178
  0.3498311541406046  0.3320970246709643  0.8456456558830169
  0.3498311541406046  0.8320969946709705  0.3456456558830178
  0.3498311541406046  0.8320969946709705  0.8456456558830169
  0.8498311541406053  0.3320970246709645  0.3456456558830178
  0.8498311541406053  0.3320970246709642  0.8456456558830169
  0.8498311541406053  0.8320969946709705  0.3456456558830178
  0.8498311541406053  0.8320969946709704  0.8456456558830169
  0.0998311541406049  0.0820969946709699  0.3456456558830178
  0.0998311541406049  0.0820969946709699  0.8456456558830169
  0.0998311541406049  0.5820969946709705  0.3456456558830178
  0.0998311541406049  0.5820969946709704  0.8456456558830169
  0.5998311541406053  0.0820969946709700  0.3456456558830178
  0.5998311541406053  0.0820969946709699  0.8456456558830169
  0.5998311541406053  0.5820969946709704  0.3456456558830178
  0.5998311541406053  0.5820969946709705  0.8456456558830169
  0.3433749793822888  0.3983852473740604  0.3409928080299805
  0.3433749793822887  0.3983852473740604  0.8409927780299784
  0.3433749793822888  0.8983852473740597  0.3409928080299805
  0.3433749793822887  0.8983852473740597  0.8409927780299782
  0.8433749793822894  0.3983852473740604  0.3409928080299805
  0.8433749793822894  0.3983852473740604  0.8409927780299781
  0.8433749793822894  0.8983852473740597  0.3409928080299805
  0.8433749793822894  0.8983852473740597  0.8409927780299782
  0.0933749793822884  0.1483852473740602  0.3409928080299804
  0.0933749793822884  0.1483852473740602  0.8409927780299783
  0.0933749793822884  0.6483852473740597  0.3409928080299805
  0.0933749793822884  0.6483852473740594  0.8409927780299783
  0.5933749793822894  0.1483852473740602  0.3409928080299805
  0.5933749793822894  0.1483852473740602  0.8409927780299782
  0.5933749793822894  0.6483852473740597  0.3409928080299805
  0.5933749793822894  0.6483852473740597  0.8409927780299781
  0.3174607454460631  0.3670759772917377  0.3934265905902169
  0.3174607454460632  0.3670759772917377  0.8934266205902192
  0.3174607454460631  0.8670760072917330  0.3934265905902171
  0.3174607454460631  0.8670760072917330  0.8934266205902192
  0.8174607454460626  0.3670759772917376  0.3934265905902168
  0.8174607454460626  0.3670759772917377  0.8934266205902192
  0.8174607454460626  0.8670760072917328  0.3934265905902170
  0.8174607454460626  0.8670760072917328  0.8934266205902192
  0.0674607454460630  0.1170760072917329  0.3934265905902169
  0.0674607454460629  0.1170760072917329  0.8934266205902192
  0.0674607454460630  0.6170760072917330  0.3934265905902170
  0.0674607454460630  0.6170760072917328  0.8934266205902192
  0.5674607454460626  0.1170760072917330  0.3934265905902169
  0.5674607454460626  0.1170760072917330  0.8934266205902193
  0.5674607454460626  0.6170760072917328  0.3934265905902169
  0.5674607454460625  0.6170760072917328  0.8934266205902192
  0.1835104064287922  0.1272895928428347  0.3683042803126362
  0.1835104064287922  0.1272895928428346  0.8683043093126355
  0.1835104064287923  0.6272896068428355  0.3683042803126363
  0.1835104064287923  0.6272896068428356  0.8683043093126356
  0.6835104214287894  0.1272895928428346  0.3683042803126363
  0.6835104214287894  0.1272895928428346  0.8683043093126355
  0.6835104214287894  0.6272896068428356  0.3683042803126363
  0.6835104214287894  0.6272896068428356  0.8683043093126355
  0.4335104214287895  0.3772896068428357  0.3683042803126363
  0.4335104214287898  0.3772896068428357  0.8683043093126354
  0.4335104214287895  0.8772896068428356  0.3683042803126363
  0.4335104214287895  0.8772896068428357  0.8683043093126356
  0.9335104214287894  0.3772896068428357  0.3683042803126363
  0.9335104214287895  0.3772896068428357  0.8683043093126356
  0.9335104214287894  0.8772896068428355  0.3683042803126363
  0.9335104214287894  0.8772896068428356  0.8683043093126354
  0.1567880121496278  0.0892030910742392  0.4217504312945665
  0.1567880121496276  0.0892030910742392  0.9217504612945691
  0.1567880121496277  0.5892030830742470  0.4217504312945666
  0.1567880121496276  0.5892030830742471  0.9217504612945689
  0.6567879821496239  0.0892030910742393  0.4217504312945666
  0.6567879821496239  0.0892030910742393  0.9217504612945691
  0.6567879821496239  0.5892030830742471  0.4217504312945666
  0.6567879821496239  0.5892030830742471  0.9217504612945689
  0.4067880121496277  0.3392030830742458  0.4217504312945666
  0.4067880121496277  0.3392030830742458  0.9217504612945691
  0.4067880121496277  0.8392030830742471  0.4217504312945666
  0.4067880121496277  0.8392030830742471  0.9217504612945689
  0.9067879821496239  0.3392030830742458  0.4217504312945666
  0.9067879821496239  0.3392030830742458  0.9217504612945691
  0.9067879821496239  0.8392030830742471  0.4217504312945666
  0.9067879821496239  0.8392030830742471  0.9217504612945691
  0.3989397314713055  0.4102457036562274  0.4210383340377237
  0.3989397314713057  0.4102457036562275  0.9210383340377254
  0.3989397314713055  0.9102457036562283  0.4210383340377237
  0.3989397314713056  0.9102457036562283  0.9210383340377253
  0.8989397314713060  0.4102457036562276  0.4210383340377238
  0.8989397314713060  0.4102457036562276  0.9210383340377254
  0.8989397314713060  0.9102457036562284  0.4210383340377237
  0.8989397314713062  0.9102457036562283  0.9210383340377253
  0.1489397314713065  0.1602457036562276  0.4210383340377238
  0.1489397314713065  0.1602457036562276  0.9210383340377253
  0.1489397314713063  0.6602457036562283  0.4210383340377237
  0.1489397314713063  0.6602457036562284  0.9210383340377254
  0.6489397314713062  0.1602457036562277  0.4210383340377239
  0.6489397314713062  0.1602457036562276  0.9210383340377253
  0.6489397314713060  0.6602457036562283  0.4210383340377239
  0.6489397314713061  0.6602457036562283  0.9210383340377254
  0.4028913404919432  0.0895368483858989  0.3370677554091490
  0.4028913404919433  0.0895368483858990  0.8370677554091497
  0.4028913404919433  0.5895368183858943  0.3370677554091491
  0.4028913404919432  0.5895368183858943  0.8370677554091497
  0.9028913704919457  0.0895368483858990  0.3370677554091491
  0.9028913704919456  0.0895368483858990  0.8370677554091497
  0.9028913704919457  0.5895368183858943  0.3370677554091490
  0.9028913704919457  0.5895368183858943  0.8370677554091497
  0.1528913704919459  0.3395368483858990  0.3370677554091490
  0.1528913704919459  0.3395368483858990  0.8370677554091497
  0.1528913704919459  0.8395368183858943  0.3370677554091490
  0.1528913704919459  0.8395368183858943  0.8370677554091497
  0.6528913704919457  0.3395368483858990  0.3370677554091491
  0.6528913704919457  0.3395368483858990  0.8370677554091497
  0.6528913704919455  0.8395368183858943  0.3370677554091490
  0.6528913704919457  0.8395368183858943  0.8370677554091497
  0.3526690747464926  0.1308224564441650  0.3206462481739649
  0.3526690747464926  0.1308224564441650  0.8206462771739623
  0.3526690747464926  0.6308224564441647  0.3206462481739649
  0.3526690747464926  0.6308224564441647  0.8206462771739624
  0.8526690747464917  0.1308224564441650  0.3206462481739649
  0.8526690747464917  0.1308224564441650  0.8206462771739624
  0.8526690747464917  0.6308224564441647  0.3206462481739649
  0.8526690747464917  0.6308224564441647  0.8206462771739623
  0.1026690747464933  0.3808224564441651  0.3206462481739649
  0.1026690747464933  0.3808224564441651  0.8206462771739624
  0.1026690747464933  0.8808224564441647  0.3206462481739649
  0.1026690747464933  0.8808224564441647  0.8206462771739623
  0.6026690747464917  0.3808224564441651  0.3206462481739649
  0.6026690747464917  0.3808224564441651  0.8206462771739623
  0.6026690747464917  0.8808224564441647  0.3206462481739649
  0.6026690747464917  0.8808224564441647  0.8206462771739623
  0.3418553380492753  0.0806587769473307  0.3628536909721869
  0.3418553380492753  0.0806587769473306  0.8628537209721890
  0.3418553380492753  0.5806587619473325  0.3628536909721869
  0.3418553380492752  0.5806587619473325  0.8628537209721890
  0.8418553380492744  0.0806587769473307  0.3628536909721869
  0.8418553380492743  0.0806587769473306  0.8628537209721890
  0.8418553380492745  0.5806587619473325  0.3628536909721869
  0.8418553380492745  0.5806587619473326  0.8628537209721890
  0.0918553380492751  0.3306587619473320  0.3628536909721869
  0.0918553380492751  0.3306587619473322  0.8628537209721890
  0.0918553380492751  0.8306587619473323  0.3628536909721869
  0.0918553380492751  0.8306587619473325  0.8628537209721890
  0.5918553380492743  0.3306587619473320  0.3628536909721869
  0.5918553380492744  0.3306587619473320  0.8628537209721890
  0.5918553380492744  0.8306587619473326  0.3628536909721869
  0.5918553380492745  0.8306587619473325  0.8628537209721890
  0.1612497734960731  0.4270059989876784  0.3806296578201880
  0.1612497734960732  0.4270059989876784  0.8806296578201874
  0.1612497734960732  0.9270059699876716  0.3806296578201880
  0.1612497734960731  0.9270059699876716  0.8806296578201875
  0.6612497734960726  0.4270059989876784  0.3806296578201880
  0.6612497734960726  0.4270059989876784  0.8806296578201873
  0.6612497734960726  0.9270059699876716  0.3806296578201880
  0.6612497734960727  0.9270059699876716  0.8806296578201874
  0.4112497734960736  0.1770059699876722  0.3806296578201880
  0.4112497734960737  0.1770059699876722  0.8806296578201873
  0.4112497734960737  0.6770059699876716  0.3806296578201879
  0.4112497734960737  0.6770059699876716  0.8806296578201874
  0.9112497734960729  0.1770059699876723  0.3806296578201880
  0.9112497734960726  0.1770059699876722  0.8806296578201875
  0.9112497734960727  0.6770059699876716  0.3806296578201880
  0.9112497734960727  0.6770059699876716  0.8806296578201873
  0.1563107328378202  0.3719353325439712  0.4256770072746026
  0.1563107328378202  0.3719353325439713  0.9256769772746015
  0.1563107328378202  0.8719353325439730  0.4256770072746026
  0.1563107328378202  0.8719353325439730  0.9256769772746015
  0.6563107618378176  0.3719353325439712  0.4256770072746026
  0.6563107618378176  0.3719353325439713  0.9256769772746015
  0.6563107618378176  0.8719353325439730  0.4256770072746026
  0.6563107618378176  0.8719353325439730  0.9256769772746015
  0.4063107328378199  0.1219353325439716  0.4256770072746026
  0.4063107328378199  0.1219353325439716  0.9256769772746015
  0.4063107328378199  0.6219353325439729  0.4256770072746026
  0.4063107328378199  0.6219353325439729  0.9256769772746015
  0.9063107618378176  0.1219353325439715  0.4256770072746026
  0.9063107618378176  0.1219353325439716  0.9256769772746015
  0.9063107618378176  0.6219353325439729  0.4256770072746026
  0.9063107618378176  0.6219353325439730  0.9256769772746015
  0.3493592328493984  0.1632767570020742  0.4134504475628746
  0.3493592328493982  0.1632767570020744  0.9134504775628708
  0.3493592328493982  0.6632767570020752  0.4134504475628746
  0.3493592328493982  0.6632767570020752  0.9134504775628708
  0.8493592328493984  0.1632767570020743  0.4134504475628746
  0.8493592328493986  0.1632767570020744  0.9134504775628708
  0.8493592328493986  0.6632767570020752  0.4134504475628746
  0.8493592328493985  0.6632767570020752  0.9134504775628708
  0.0993592328493982  0.4132767570020744  0.4134504475628746
  0.0993592328493982  0.4132767570020744  0.9134504775628708
  0.0993592328493982  0.9132767570020752  0.4134504475628746
  0.0993592328493982  0.9132767570020752  0.9134504775628708
  0.5993592328493984  0.4132767570020744  0.4134504475628746
  0.5993592328493986  0.4132767570020745  0.9134504775628708
  0.5993592328493986  0.9132767570020752  0.4134504475628746
  0.5993592328493985  0.9132767570020752  0.9134504775628708
  0.9802898254096958  0.9808322591882481  0.1219086736608717
  0.9802898254096958  0.9808322591882481  0.6219086736608723
  0.9802898254096958  0.4808322591882481  0.1219086736608717
  0.9802898254096958  0.4808322591882481  0.6219086736608723
  0.4802898254096959  0.9808322591882481  0.1219086736608717
  0.4802898254096959  0.9808322591882481  0.6219086736608723
  0.4802898254096959  0.4808322591882481  0.1219086736608717
  0.4802898254096959  0.4808322591882481  0.6219086736608723
  0.2302898254096956  0.2308322591882486  0.1219086736608717
  0.2302898254096956  0.2308322591882486  0.6219086736608723
  0.2302898254096956  0.7308322591882481  0.1219086736608717
  0.2302898254096956  0.7308322591882481  0.6219086736608723
  0.7302898254096958  0.2308322591882486  0.1219086736608717
  0.7302898254096958  0.2308322591882486  0.6219086736608723
  0.7302898254096958  0.7308322591882481  0.1219086736608717
  0.7302898254096958  0.7308322591882481  0.6219086736608723
  0.9819519591119817  0.0150392104496896  0.3710948503176518
  0.9819519591119817  0.0150392104496896  0.8710948503176524
  0.9819519591119817  0.5150392104496894  0.3710948503176518
  0.9819519591119817  0.5150392104496894  0.8710948503176524
  0.4819519591119818  0.0150392104496896  0.3710948503176518
  0.4819519591119818  0.0150392104496896  0.8710948503176524
  0.4819519591119818  0.5150392104496894  0.3710948503176518
  0.4819519591119818  0.5150392104496894  0.8710948503176524
  0.2319519591119820  0.2650392104496894  0.3710948503176518
  0.2319519591119820  0.2650392104496894  0.8710948503176524
  0.2319519591119820  0.7650392104496894  0.3710948503176518
  0.2319519591119820  0.7650392104496894  0.8710948503176524
  0.7319519591119817  0.2650392104496895  0.3710948503176518
  0.7319519591119817  0.2650392104496894  0.8710948503176524
  0.7319519591119817  0.7650392104496894  0.3710948503176518
  0.7319519591119817  0.7650392104496894  0.8710948503176524
  0.2700727177527267  0.0118650567658343  0.3628437140590398
  0.2700727177527267  0.0118650567658345  0.8628437140590401
  0.2700727177527267  0.5118650567658355  0.3628437140590398
  0.2700727177527267  0.5118650567658355  0.8628437140590401
  0.7700727177527273  0.0118650567658345  0.3628437140590398
  0.7700727177527273  0.0118650567658345  0.8628437140590401