MAPbI3 tetragonal T=300 K               
1.0
       25.0541992188         0.0000000000         0.0000000000
        0.0000000000        25.0542068481         0.0000000000
        0.0000000000         0.0000000000        25.3479995728
    C    H    I    N   Pb
   64  384  192   64   64
Direct
     0.125923544         0.118213907         0.128144160
     0.125923544         0.118213907         0.628144145
     0.125923544         0.618213892         0.128144160
     0.125923544         0.618213892         0.628144145
     0.625923514         0.118213907         0.128144160
     0.625923514         0.118213907         0.628144145
     0.625923514         0.618213892         0.128144160
     0.625923514         0.618213892         0.628144145
     0.375923544         0.368213892         0.128144160
     0.375923544         0.368213892         0.628144145
     0.375923544         0.868213892         0.128144160
     0.375923544         0.868213892         0.628144145
     0.875923514         0.368213892         0.128144160
     0.875923514         0.368213892         0.628144145
     0.875923514         0.868213892         0.128144160
     0.875923514         0.868213892         0.628144145
     0.132148921         0.377281576         0.128047049
     0.132148921         0.377281576         0.628047049
     0.132148921         0.877281547         0.128047049
     0.132148921         0.877281547         0.628047049
     0.632148921         0.377281576         0.128047049
     0.632148921         0.377281576         0.628047049
     0.632148921         0.877281547         0.128047049
     0.632148921         0.877281547         0.628047049
     0.382148921         0.127281547         0.128047049
     0.382148921         0.127281547         0.628047049
     0.382148921         0.627281547         0.128047049
     0.382148921         0.627281547         0.628047049
     0.882148921         0.127281547         0.128047049
     0.882148921         0.127281547         0.628047049
     0.882148921         0.627281547         0.128047049
     0.882148921         0.627281547         0.628047049
     0.132111102         0.122890621         0.378130496
     0.132111102         0.122890621         0.878130496
     0.132111102         0.622890592         0.378130496
     0.132111102         0.622890592         0.878130496
     0.632111073         0.122890621         0.378130496
     0.632111073         0.122890621         0.878130496
     0.632111073         0.622890592         0.378130496
     0.632111073         0.622890592         0.878130496
     0.382111102         0.372890621         0.378130496
     0.382111102         0.372890621         0.878130496
     0.382111102         0.872890592         0.378130496
     0.382111102         0.872890592         0.878130496
     0.882111073         0.372890621         0.378130496
     0.882111073         0.372890621         0.878130496
     0.882111073         0.872890592         0.378130496
     0.882111073         0.872890592         0.878130496
     0.125967771         0.381805629         0.378150195
     0.125967771         0.381805629         0.878150225
     0.125967771         0.881805658         0.378150195
     0.125967771         0.881805658         0.878150225
     0.625967741         0.381805629         0.378150195
     0.625967741         0.381805629         0.878150225
     0.625967741         0.881805658         0.378150195
     0.625967741         0.881805658         0.878150225
     0.375967771         0.131805658         0.378150195
     0.375967771         0.131805658         0.878150225
     0.375967771         0.631805658         0.378150195
     0.375967771         0.631805658         0.878150225
     0.875967741         0.131805658         0.378150195
     0.875967741         0.131805658         0.878150225
     0.875967741         0.631805658         0.378150195
     0.875967741         0.631805658         0.878150225
     0.404262602         0.091838121         0.115276232
     0.404262602         0.091838121         0.615276217
     0.404262602         0.591838121         0.115276232
     0.404262602         0.591838121         0.615276217
     0.904262602         0.091838121         0.115276232
     0.904262602         0.091838121         0.615276217
     0.904262602         0.591838121         0.115276232
     0.904262602         0.591838121         0.615276217
     0.154262602         0.341838121         0.115276232
     0.154262602         0.341838121         0.615276217
     0.154262602         0.841838121         0.115276232
     0.154262602         0.841838121         0.615276217
     0.654262602         0.341838121         0.115276232
     0.654262602         0.341838121         0.615276217
     0.654262602         0.841838121         0.115276232
     0.654262602         0.841838121         0.615276217
     0.127149209         0.377244264         0.170904607
     0.127149209         0.377244264         0.670904636
     0.127149209         0.877244234         0.170904607
     0.127149209         0.877244234         0.670904636
     0.627149224         0.377244264         0.170904607
     0.627149224         0.377244264         0.670904636
     0.627149224         0.877244234         0.170904607
     0.627149224         0.877244234         0.670904636
     0.377149224         0.127244234         0.170904607
     0.377149224         0.127244234         0.670904636
     0.377149224         0.627244234         0.170904607
     0.377149224         0.627244234         0.670904636
     0.877149224         0.127244234         0.170904607
     0.877149224         0.127244234         0.670904636
     0.877149224         0.627244234         0.170904607
     0.877149224         0.627244234         0.670904636
     0.153092057         0.413419873         0.115260892
     0.153092057         0.413419873         0.615260899
     0.153092057         0.913419843         0.115260892
     0.153092057         0.913419843         0.615260899
     0.653092027         0.413419873         0.115260892
     0.653092027         0.413419873         0.615260899
     0.653092027         0.913419843         0.115260892
     0.653092027         0.913419843         0.615260899
     0.403092057         0.163419843         0.115260892
     0.403092057         0.163419843         0.615260899
     0.403092057         0.663419843         0.115260892
     0.403092057         0.663419843         0.615260899
     0.903092027         0.163419843         0.115260892
     0.903092027         0.163419843         0.615260899
     0.903092027         0.663419843         0.115260892
     0.903092027         0.663419843         0.615260899
     0.306681037         0.092686340         0.113406874
     0.306681037         0.092686340         0.613406897
     0.306681037         0.592686355         0.113406874
     0.306681037         0.592686355         0.613406897
     0.806681037         0.092686340         0.113406874
     0.806681037         0.092686340         0.613406897
     0.806681037         0.592686355         0.113406874
     0.806681037         0.592686355         0.613406897
     0.056681037         0.342686355         0.113406874
     0.056681037         0.342686355         0.613406897
     0.056681037         0.842686355         0.113406874
     0.056681037         0.842686355         0.613406897
     0.556681037         0.342686355         0.113406874
     0.556681037         0.342686355         0.613406897
     0.556681037         0.842686355         0.113406874
     0.556681037         0.842686355         0.613406897
     0.331372201         0.127249315         0.062266964
     0.331372201         0.127249315         0.562266946
     0.331372201         0.627249300         0.062266964
     0.331372201         0.627249300         0.562266946
     0.831372201         0.127249315         0.062266964
     0.831372201         0.127249315         0.562266946
     0.831372201         0.627249300         0.062266964
     0.831372201         0.627249300         0.562266946
     0.081372201         0.377249300         0.062266964
     0.081372201         0.377249300         0.562266946
     0.081372201         0.877249300         0.062266964
     0.081372201         0.877249300         0.562266946
     0.581372201         0.377249300         0.062266964
     0.581372201         0.377249300         0.562266946
     0.581372201         0.877249300         0.062266964
     0.581372201         0.877249300         0.562266946
     0.305876106         0.159814179         0.113969892
     0.305876106         0.159814179         0.613969922
     0.305876106         0.659814179         0.113969892
     0.305876106         0.659814179         0.613969922
     0.805876136         0.159814179         0.113969892
     0.805876136         0.159814179         0.613969922
     0.805876136         0.659814179         0.113969892
     0.805876136         0.659814179         0.613969922
     0.055876136         0.409814179         0.113969892
     0.055876136         0.409814179         0.613969922
     0.055876136         0.909814179         0.113969892
     0.055876136         0.909814179         0.613969922
     0.555876136         0.409814179         0.113969892
     0.555876136         0.409814179         0.613969922
     0.555876136         0.909814179         0.113969892
     0.555876136         0.909814179         0.613969922
     0.372522175         0.418299943         0.061994642
     0.372522175         0.418299943         0.561994672
     0.372522175         0.918299913         0.061994642
     0.372522175         0.918299913         0.561994672
     0.872522175         0.418299943         0.061994642
     0.872522175         0.418299943         0.561994672
     0.872522175         0.918299913         0.061994642
     0.872522175         0.918299913         0.561994672
     0.122522175         0.168299913         0.061994642
     0.122522175         0.168299913         0.561994672
     0.122522175         0.668299913         0.061994642
     0.122522175         0.668299913         0.561994672
     0.622522175         0.168299913         0.061994642
     0.622522175         0.168299913         0.561994672
     0.622522175         0.668299913         0.061994642
     0.622522175         0.668299913         0.561994672
     0.408245265         0.444220841         0.111694574
     0.408245265         0.444220841         0.611694574
     0.408245265         0.944220841         0.111694574
     0.408245265         0.944220841         0.611694574
     0.908245265         0.444220841         0.111694574
     0.908245265         0.444220841         0.611694574
     0.908245265         0.944220841         0.111694574
     0.908245265         0.944220841         0.611694574
     0.158245265         0.194220841         0.111694574
     0.158245265         0.194220841         0.611694574
     0.158245265         0.694220841         0.111694574
     0.158245265         0.694220841         0.611694574
     0.658245265         0.194220841         0.111694574
     0.658245265         0.194220841         0.611694574
     0.658245265         0.694220841         0.111694574
     0.658245265         0.694220841         0.611694574
     0.341109872         0.443709254         0.114477515
     0.341109872         0.443709254         0.614477515
     0.341109872         0.943709254         0.114477515
     0.341109872         0.943709254         0.614477515
     0.841109872         0.443709254         0.114477515
     0.841109872         0.443709254         0.614477515
     0.841109872         0.943709254         0.114477515
     0.841109872         0.943709254         0.614477515
     0.091109872         0.193709254         0.114477515
     0.091109872         0.193709254         0.614477515
     0.091109872         0.693709254         0.114477515
     0.091109872         0.693709254         0.614477515
     0.591109872         0.193709254         0.114477515
     0.591109872         0.193709254         0.614477515
     0.591109872         0.693709254         0.114477515
     0.591109872         0.693709254         0.614477515
     0.161045343         0.096675068         0.113671675
     0.161045343         0.096675068         0.613671660
     0.161045343         0.596675038         0.113671675
     0.161045343         0.596675038         0.613671660
     0.661045313         0.096675068         0.113671675
     0.661045313         0.096675068         0.613671660
     0.661045313         0.596675038         0.113671675
     0.661045313         0.596675038         0.613671660
     0.411045343         0.346675068         0.113671675
     0.411045343         0.346675068         0.613671660
     0.411045343         0.846675038         0.113671675
     0.411045343         0.846675038         0.613671660
     0.911045313         0.346675068         0.113671675
     0.911045313         0.346675068         0.613671660
     0.911045313         0.846675038         0.113671675
     0.911045313         0.846675038         0.613671660
     0.339559555         0.346476078         0.117460012
     0.339559555         0.346476078         0.617460012
     0.339559555         0.846476078         0.117460012
     0.339559555         0.846476078         0.617460012
     0.839559555         0.346476078         0.117460012
     0.839559555         0.346476078         0.617460012
     0.839559555         0.846476078         0.117460012
     0.839559555         0.846476078         0.617460012
     0.089559555         0.096476078         0.117460012
     0.089559555         0.096476078         0.617460012
     0.089559555         0.596476078         0.117460012
     0.089559555         0.596476078         0.617460012
     0.589559555         0.096476078         0.117460012
     0.589559555         0.096476078         0.617460012
     0.589559555         0.596476078         0.117460012
     0.589559555         0.596476078         0.617460012
     0.128187284         0.123440020         0.170915440
     0.128187284         0.123440020         0.670915425
     0.128187284         0.623440027         0.170915440
     0.128187284         0.623440027         0.670915425
     0.628187299         0.123440020         0.170915440
     0.628187299         0.123440020         0.670915425
     0.628187299         0.623440027         0.170915440
     0.628187299         0.623440027         0.670915425
     0.378187299         0.373440027         0.170915440
     0.378187299         0.373440027         0.670915425
     0.378187299         0.873440027         0.170915440
     0.378187299         0.873440027         0.670915425
     0.878187299         0.373440027         0.170915440
     0.878187299         0.373440027         0.670915425
     0.878187299         0.873440027         0.170915440
     0.878187299         0.873440027         0.670915425
     0.305835128         0.340283781         0.364241123
     0.305835128         0.340283781         0.864241123
     0.305835128         0.840283751         0.364241123
     0.305835128         0.840283751         0.864241123
     0.805835128         0.340283781         0.364241123
     0.805835128         0.340283781         0.864241123
     0.805835128         0.840283751         0.364241123
     0.805835128         0.840283751         0.864241123
     0.055835128         0.090283751         0.364241123
     0.055835128         0.090283751         0.864241123
     0.055835128         0.590283751         0.364241123
     0.055835128         0.590283751         0.864241123
     0.555835128         0.090283751         0.364241123
     0.555835128         0.090283751         0.864241123
     0.555835128         0.590283751         0.364241123
     0.555835128         0.590283751         0.864241123
     0.331424117         0.372345328         0.312289745
     0.331424117         0.372345328         0.812289715
     0.331424117         0.872345328         0.312289745
     0.331424117         0.872345328         0.812289715
     0.831424117         0.372345328         0.312289745
     0.831424117         0.372345328         0.812289715
     0.831424117         0.872345328         0.312289745
     0.831424117         0.872345328         0.812289715
     0.081424117         0.122345328         0.312289745
     0.081424117         0.122345328         0.812289715
     0.081424117         0.622345328         0.312289745
     0.081424117         0.622345328         0.812289715
     0.581424117         0.122345328         0.312289745
     0.581424117         0.122345328         0.812289715
     0.581424117         0.622345328         0.312289745
     0.581424117         0.622345328         0.812289715
     0.306689322         0.407403678         0.363099307
     0.306689322         0.407403678         0.863099337
     0.306689322         0.907403708         0.363099307
     0.306689322         0.907403708         0.863099337
     0.806689322         0.407403678         0.363099307
     0.806689322         0.407403678         0.863099337
     0.806689322         0.907403708         0.363099307
     0.806689322         0.907403708         0.863099337
     0.056689322         0.157403708         0.363099307
     0.056689322         0.157403708         0.863099337
     0.056689322         0.657403708         0.363099307
     0.056689322         0.657403708         0.863099337
     0.556689322         0.157403708         0.363099307
     0.556689322         0.157403708         0.863099337
     0.556689322         0.657403708         0.363099307
     0.556689322         0.657403708         0.863099337
     0.153006539         0.086563990         0.365799040
     0.153006539         0.086563990         0.865799069
     0.153006539         0.586564004         0.365799040
     0.153006539         0.586564004         0.865799069
     0.653006554         0.086563990         0.365799040
     0.653006554         0.086563990         0.865799069
     0.653006554         0.586564004         0.365799040
     0.653006554         0.586564004         0.865799069
     0.403006554         0.336564004         0.365799040
     0.403006554         0.336564004         0.865799069
     0.403006554         0.836564004         0.365799040
     0.403006554         0.836564004         0.865799069
     0.903006554         0.336564004         0.365799040
     0.903006554         0.336564004         0.865799069
     0.903006554         0.836564004         0.365799040
     0.903006554         0.836564004         0.865799069
     0.127057940         0.123443671         0.420979112
     0.127057940         0.123443671         0.920979142
     0.127057940         0.623443663         0.420979112
     0.127057940         0.623443663         0.920979142
     0.627057910         0.123443671         0.420979112
     0.627057910         0.123443671         0.920979142
     0.627057910         0.623443663         0.420979112
     0.627057910         0.623443663         0.920979142
     0.377057940         0.373443663         0.420979112
     0.377057940         0.373443663         0.920979142
     0.377057940         0.873443663         0.420979112
     0.377057940         0.873443663         0.920979142
     0.877057910         0.373443663         0.420979112
     0.877057910         0.373443663         0.920979142
     0.877057910         0.873443663         0.420979112
     0.877057910         0.873443663         0.920979142
     0.404306829         0.408139050         0.364974439
     0.404306829         0.408139050         0.864974439
     0.404306829         0.908139050         0.364974439
     0.404306829         0.908139050         0.864974439
     0.904306829         0.408139050         0.364974439
     0.904306829         0.408139050         0.864974439
     0.904306829         0.908139050         0.364974439
     0.904306829         0.908139050         0.864974439
     0.154306829         0.158139050         0.364974439
     0.154306829         0.158139050         0.864974439
     0.154306829         0.658139050         0.364974439
     0.154306829         0.658139050         0.864974439
     0.654306829         0.158139050         0.364974439
     0.654306829         0.158139050         0.864974439
     0.654306829         0.658139050         0.364974439
     0.654306829         0.658139050         0.864974439
     0.408230036         0.055777341         0.361687183
     0.408230036         0.055777341         0.861687183
     0.408230036         0.555777311         0.361687183
     0.408230036         0.555777311         0.861687183
     0.908230066         0.055777341         0.361687183
     0.908230066         0.055777341         0.861687183
     0.908230066         0.555777311         0.361687183
     0.908230066         0.555777311         0.861687183
     0.158230066         0.305777341         0.361687183
     0.158230066         0.305777341         0.861687183
     0.158230066         0.805777311         0.361687183
     0.158230066         0.805777311         0.861687183
     0.658230066         0.305777341         0.361687183
     0.658230066         0.305777341         0.861687183
     0.658230066         0.805777311         0.361687183
     0.658230066         0.805777311         0.861687183
     0.372497439         0.081719100         0.312003464
     0.372497439         0.081719100         0.812003493
     0.372497439         0.581719100         0.312003464
     0.372497439         0.581719100         0.812003493
     0.872497439         0.081719100         0.312003464
     0.872497439         0.081719100         0.812003493
     0.872497439         0.581719100         0.312003464
     0.872497439         0.581719100         0.812003493
     0.122497439         0.331719100         0.312003464
     0.122497439         0.331719100         0.812003493
     0.122497439         0.831719100         0.312003464
     0.122497439         0.831719100         0.812003493
     0.622497439         0.331719100         0.312003464
     0.622497439         0.331719100         0.812003493
     0.622497439         0.831719100         0.312003464
     0.622497439         0.831719100         0.812003493
     0.341096818         0.056331053         0.364502400
     0.341096818         0.056331053         0.864502430
     0.341096818         0.556331038         0.364502400
     0.341096818         0.556331038         0.864502430
     0.841096818         0.056331053         0.364502400
     0.841096818         0.056331053         0.864502430
     0.841096818         0.556331038         0.364502400
     0.841096818         0.556331038         0.864502430
     0.091096818         0.306331038         0.364502400
     0.091096818         0.306331038         0.864502430
     0.091096818         0.806331038         0.364502400
     0.091096818         0.806331038         0.864502430
     0.591096818         0.306331038         0.364502400
     0.591096818         0.306331038         0.864502430
     0.591096818         0.806331038         0.364502400
     0.591096818         0.806331038         0.864502430
     0.161103487         0.403314143         0.363666892
     0.161103487         0.403314143         0.863666892
     0.161103487         0.903314114         0.363666892
     0.161103487         0.903314114         0.863666892
     0.661103487         0.403314143         0.363666892
     0.661103487         0.403314143         0.863666892
     0.661103487         0.903314114         0.363666892
     0.661103487         0.903314114         0.863666892
     0.411103487         0.153314114         0.363666892
     0.411103487         0.153314114         0.863666892
     0.411103487         0.653314114         0.363666892
     0.411103487         0.653314114         0.863666892
     0.911103487         0.153314114         0.363666892
     0.911103487         0.153314114         0.863666892
     0.911103487         0.653314114         0.363666892
     0.911103487         0.653314114         0.863666892
     0.128240079         0.376579940         0.420920521
     0.128240079         0.376579940         0.920920491
     0.128240079         0.876579940         0.420920521
     0.128240079         0.876579940         0.920920491
     0.628240108         0.376579940         0.420920521
     0.628240108         0.376579940         0.920920491
     0.628240108         0.876579940         0.420920521
     0.628240108         0.876579940         0.920920491
     0.378240079         0.126579940         0.420920521
     0.378240079         0.126579940         0.920920491
     0.378240079         0.626579940         0.420920521
     0.378240079         0.626579940         0.920920491
     0.878240108         0.126579940         0.420920521
     0.878240108         0.126579940         0.920920491
     0.878240108         0.626579940         0.420920521
     0.878240108         0.626579940         0.920920491
     0.339619160         0.153573632         0.367475599
     0.339619160         0.153573632         0.867475629
     0.339619160         0.653573632         0.367475599
     0.339619160         0.653573632         0.867475629
     0.839619160         0.153573632         0.367475599
     0.839619160         0.153573632         0.867475629
     0.839619160         0.653573632         0.367475599
     0.839619160         0.653573632         0.867475629
     0.089619160         0.403573632         0.367475599
     0.089619160         0.403573632         0.867475629
     0.089619160         0.903573632         0.367475599
     0.089619160         0.903573632         0.867475629
     0.589619160         0.403573632         0.367475599
     0.589619160         0.403573632         0.867475629
     0.589619160         0.903573632         0.367475599
     0.589619160         0.903573632         0.867475629
     0.000000000         0.000000000         0.125000000
     0.000000000         0.000000000         0.625000000
     0.000000000         0.500000000         0.125000000
     0.000000000         0.500000000         0.625000000
     0.500000000         0.000000000         0.125000000
     0.500000000         0.000000000         0.625000000
     0.500000000         0.500000000         0.125000000
     0.500000000         0.500000000         0.625000000
     0.250000000         0.250000000         0.125000000
     0.250000000         0.250000000         0.625000000
     0.250000000         0.750000000         0.125000000
     0.250000000         0.750000000         0.625000000
     0.750000000         0.250000000         0.125000000
     0.750000000         0.250000000         0.625000000
     0.750000000         0.750000000         0.125000000
     0.750000000         0.750000000         0.625000000
     0.000000000         0.000000000         0.375000000
     0.000000000         0.000000000         0.875000000
     0.000000000         0.500000000         0.375000000
     0.000000000         0.500000000         0.875000000
     0.500000000         0.000000000         0.375000000
     0.500000000         0.000000000         0.875000000
     0.500000000         0.500000000         0.375000000
     0.500000000         0.500000000         0.875000000
     0.250000000         0.250000000         0.375000000
     0.250000000         0.250000000         0.875000000
     0.250000000         0.750000000         0.375000000
     0.250000000         0.750000000         0.875000000
     0.750000000         0.250000000         0.375000000
     0.750000000         0.250000000         0.875000000
     0.750000000         0.750000000         0.375000000
     0.750000000         0.750000000         0.875000000
     0.250000000         0.000000000         0.375000000
     0.250000000         0.000000000         0.875000000
     0.250000000         0.500000000         0.375000000
     0.250000000         0.500000000         0.875000000
     0.750000000         0.000000000         0.375000000
     0.750000000         0.000000000         0.875000000
     0.750000000         0.500000000         0.375000000
     0.750000000         0.500000000         0.875000000
     0.000000000         0.250000000         0.375000000
     0.000000000         0.250000000         0.875000000
     0.000000000         0.750000000         0.375000000
     0.000000000         0.750000000         0.875000000
     0.500000000         0.250000000         0.375000000
     0.500000000         0.250000000         0.875000000
     0.500000000         0.750000000         0.375000000
     0.500000000         0.750000000         0.875000000
     0.250000000         0.000000000         0.125000000
     0.250000000         0.000000000         0.625000000
     0.250000000         0.500000000         0.125000000
     0.250000000         0.500000000         0.625000000
     0.750000000         0.000000000         0.125000000
     0.750000000         0.000000000         0.625000000
     0.750000000         0.500000000         0.125000000
     0.750000000         0.500000000         0.625000000
     0.000000000         0.250000000         0.125000000
     0.000000000         0.250000000         0.625000000
     0.000000000         0.750000000         0.125000000
     0.000000000         0.750000000         0.625000000
     0.500000000         0.250000000         0.125000000
     0.500000000         0.250000000         0.625000000
     0.500000000         0.750000000         0.125000000
     0.500000000         0.750000000         0.625000000
     0.217999995         0.125000000         0.000000000
     0.217999995         0.125000000         0.500000000
     0.217999995         0.625000000         0.000000000
     0.217999995         0.625000000         0.500000000
     0.717999995         0.125000000         0.000000000
     0.717999995         0.125000000         0.500000000
     0.717999995         0.625000000         0.000000000
     0.717999995         0.625000000         0.500000000
     0.467999995         0.375000000         0.000000000