MAPbI3 tetragonal T=300 K               
   1.00000000000000     
    25.0541992188000009    0.0000000000000000    0.0000000000000000
     0.0000000000000000   25.0542068481000015    0.0000000000000000
     0.0000000000000000    0.0000000000000000   25.3479995727999992
   C    H    I    N    Pb
    64   384   192    64    64
Direct
  0.1326655272641555  0.1537604436236813  0.1312731452183513
  0.1232898360196852  0.1045103049317752  0.6010025992367873
  0.1185713647964022  0.6359732634860542  0.1269792575062631
  0.1247542172911255  0.6676343076744782  0.6243345903843646
  0.6225418070088344  0.1588162472558419  0.1394811820631615
  0.6107713873207864  0.1440523728014134  0.5959635234342257
  0.6360423095434572  0.6562050713369100  0.1277653853912339
  0.6202684534419654  0.6693381304469257  0.6251998850275675
  0.3807503128461166  0.3820526367422638  0.1489656125870150
  0.3654052444712884  0.3591011156419769  0.6448814272443937
  0.3944480646403582  0.8898274236193511  0.1221329441628943
  0.3493409260532184  0.8714648399176695  0.6511516634748349
  0.8982611654361260  0.3807507905303769  0.1247940419511993
  0.8616643832946240  0.3642578855349348  0.6482606519521082
  0.8641438118884025  0.8818982325326951  0.1454233431111100
  0.8714692954676264  0.8786009312335784  0.6513365817246280
  0.1285228243281073  0.3440230327918863  0.1539982974978267
  0.1327070014659183  0.3447151839513235  0.6266041514438794
  0.1137659880961269  0.8444675808628743  0.1034536824290011
  0.1227503914805222  0.8462696238806627  0.6674535130782773
  0.6266094885806708  0.3369899253672505  0.1710587470000738
  0.6022858216493825  0.3596360911638631  0.6790158346654941
  0.6248282042725500  0.8538303423891016  0.1201614661360583
  0.6059087455227530  0.8453365044688085  0.6552039285837111
  0.3793508982386606  0.1053594977615848  0.1163450013154693
  0.3819960018977774  0.1097916282697445  0.6434103785833261
  0.3796393805666975  0.5774715001839159  0.1161224229320817
  0.3814981952567649  0.5949983871019140  0.6198181160187457
  0.8923446908289243  0.1024482126888366  0.1398062267648529
  0.9320673420527822  0.1113348156130528  0.6209807655183457
  0.8789861675811647  0.6367200906484910  0.1414243144018648
  0.9059816046915334  0.6389338536439777  0.6338215825551445
  0.1615093819152657  0.1149287879257247  0.3390047058797883
  0.0943201156535071  0.1109930441803613  0.8727699384446577
  0.1324074617152872  0.6308689864786515  0.3384247780154074
  0.1062357777602271  0.6235163254806595  0.8551531674134182
  0.5922648285305848  0.1030485655836920  0.3674950127022703
  0.5818133271855607  0.1243984247215541  0.8608885848349862
  0.5909115807512284  0.6214915121175371  0.3612743687688316
  0.6022859568256088  0.6214395176507425  0.8505506657818854
  0.3723711791035826  0.3533902034414964  0.3795129137772905
  0.3885627588934129  0.3685672558079421  0.8816876695158402
  0.3555340512114422  0.8674104391863674  0.3773462864772479
  0.3906199514436844  0.8617483437623099  0.8798867925366349
  0.8776416654887633  0.3715830819260058  0.3896788229750831
  0.8880225033786172  0.3660981473626457  0.8835544498689274
  0.8647349809064827  0.8714326273652216  0.3839725854361948
  0.8483343733808330  0.8765378254400170  0.8778341071983732
  0.1027425807269168  0.3942442152367577  0.3461694932124216
  0.1158361783534179  0.3790011632104144  0.8489337641648307
  0.1242148480258212  0.8829895968463267  0.3655211735571496
  0.1069661468790325  0.8938471259083127  0.8632018931348937
  0.6284486996014351  0.4102504044299707  0.3448055090069628
  0.6222710699724555  0.3964323631857600  0.8483450258462423
  0.5904238787119006  0.8905337078948657  0.3550166918906572
  0.6238389815029285  0.9016749714427816  0.8538900673512364
  0.3721992274609328  0.1310638041459579  0.3558521036117294
  0.3788418594689512  0.1274582624184977  0.8558796910202727
  0.3795556498637637  0.6355190793140232  0.3781687319223578
  0.3840626609396458  0.6391699934989322  0.8532440319316373
  0.8865693388452019  0.1214256027563513  0.3540718644632457
  0.8787468156223570  0.1182544425953270  0.8583010365662058
  0.8962587055634751  0.6204051516016968  0.3550893311793227
  0.8775582250863861  0.6417222878123088  0.8659982838266498
  0.3477436964240697  0.0955527978934070  0.0883629512556006
  0.3396096141648762  0.1203442458030078  0.6450952838917777
  0.3486840367038515  0.5484607466391624  0.1269742538544363
  0.3505704157073904  0.6174170215777642  0.5987039460521442
  0.8797694258900197  0.1006840573350423  0.1810000504495917
  0.9252385230868108  0.0688107901956422  0.6138895978415824
  0.8704619871182103  0.6768980819266227  0.1266815887077618
  0.9366687483593045  0.6387753473419658  0.6648517823079029
  0.1128622560940661  0.3400286601569332  0.1939680493598906
  0.1668935644493496  0.3599785868583583  0.6488492661354092
  0.1348898488309399  0.8326975272999709  0.1394518107466073
  0.1645719567289519  0.8485914362056093  0.6792338482830780
  0.6373800196572534  0.2950004345259800  0.1692297034616828
  0.6312184179899036  0.3887938623994884  0.6940641798446234
  0.6348462185941728  0.8205397912381222  0.1464216416295914
  0.5953787067231857  0.8048819634694623  0.6428890136373584
  0.1721322453109549  0.3463438001288311  0.1551946343107453
  0.1439330594046672  0.3365127038649502  0.5857804798672013
  0.1421023480282211  0.8546522169955821  0.0721834727729373
  0.1110650049638392  0.8052713649934707  0.6594256427379873
  0.5872425222149782  0.3418600750736026  0.1887942680930279
  0.5929218594939010  0.3302737699784419  0.7093817536623509
  0.6602569122172680  0.8779065227093220  0.1117731761763957
  0.5698178468206992  0.8689177398604155  0.6615508936399213
  0.3759190904851807  0.0791419882014351  0.1508056522804423
  0.3993527543304207  0.1131901452807167  0.6828293911152586
  0.4172084502745294  0.5680485496425406  0.1362294103940409
  0.3630979015982171  0.5669711059859681  0.6474823000687581
  0.8976588971786807  0.0620912713622484  0.1242502929813628
  0.9622287952752138  0.1170357583038418  0.6517507738390204
  0.8780500938484307  0.6354567588621772  0.1845179930435411
  0.8709224235249721  0.6612208824908595  0.6475401139539545
  0.1150846141997728  0.3106369466809510  0.1297101143440174
  0.1163446040445245  0.3088153812800401  0.6449373631366530
  0.0876932278356038  0.8116838569563808  0.0910245110983190
  0.0967625015582279  0.8629472555377502  0.6981486862413141
  0.6567399314601048  0.3590347931194273  0.1933991421434417
  0.5659909269039000  0.3795234051858212  0.6651612827808159
  0.6070832454869411  0.8391476042969251  0.0832071438377791
  0.6306712058892497  0.8431348622091328  0.6908277658087238
  0.4183340463977647  0.1002618668501635  0.0974507925462711
  0.3875895021631778  0.0698587689021599  0.6269699706542584
  0.3846553769293504  0.5778786408703476  0.0730921082145499
  0.4071521641436754  0.5742321665757568  0.5914381711935427
  0.8625853286460916  0.1238296632833215  0.1165423930753034
  0.9431853661767945  0.1312511890590610  0.5841784045001828
  0.8506386811864419  0.6078757020201654  0.1250404737569625
  0.9214273005883620  0.6570516749024183  0.5975295331532569
  0.3319517210848845  0.1734681093747811  0.1316396628996818
  0.3869384293612618  0.1699221108322488  0.5826565414967396
  0.3532110455443093  0.6323304615065815  0.1734284588869060
  0.3936419299751031  0.6552285471096559  0.6784779369534938
  0.9443698781799230  0.1648409337537603  0.1127725620808981
  0.8491476537800079  0.1285383351848876  0.6158225188828853
  0.9462444605633916  0.5849413579859627  0.1383003312203203
  0.9204989106280493  0.5639479970627425  0.6024469247972812
  0.1175057827649375  0.4283182264627087  0.1545929095144677
  0.0538524280322687  0.3726843387915746  0.6390920372956905
  0.0588700766728454  0.9047859749972427  0.0818887206099377
  0.0738561914077858  0.8864425012195513  0.6126808791981164
  0.5865835401345615  0.3548524556068003  0.0990097568233145
  0.6496886725270040  0.3525160347563276  0.6087478288622007
  0.5588447324312096  0.9054641711054697  0.1179086475629296
  0.6419704741431170  0.9113800704004822  0.6212976693277199
  0.3927199489130271  0.1886937431190284  0.1101299705486293
  0.4400342927405102  0.1306382187989757  0.5849178075437619
  0.3270319011773959  0.6430891818746205  0.1132107693578710
  0.4326626291597417  0.6617910488000389  0.6263306408381968
  0.9746490138206259  0.1056787958592344  0.1240792933002280
  0.8843295822082914  0.1754794563345237  0.6485907209926234
  0.9608843222606600  0.6510695238777430  0.1358287611072448
  0.8547895814458690  0.5808798527680858  0.6014838067673871
  0.0670729413382420  0.3952622047586798  0.1267221057251670
  0.0824982607396656  0.4019576222894524  0.5879660722288473
  0.1031147346631347  0.9242505432476403  0.1286336479998041
  0.1275725745300752  0.8596985990656800  0.5846760557048405
  0.6500012384389241  0.3349934858344911  0.0916916412911831
  0.5959213946495058  0.3121361625901703  0.6118000583680048
  0.6010312272582810  0.9207220844509744  0.1665029379934273
  0.6174830055013569  0.8688664096279509  0.5754827074579166
  0.3838149374301318  0.1679321661637121  0.1716794154282754
  0.4311749114691660  0.1779746115637455  0.6313667181152341
  0.3903301271809413  0.6599197085367938  0.1259450768592726
  0.4458746193366543  0.6154858929278861  0.6711878631749713
  0.9567258383205376  0.1452060942426751  0.1740078142331511
  0.8721696733582467  0.1178719274344723  0.6769851014780557
  0.9367908663297375  0.6201451511027489  0.0830626562935031
  0.8847983493997273  0.5618034971760678  0.6589660825983379
  0.1231820864928740  0.4021540520041759  0.0935586980191752
  0.1003043701098881  0.4200100858443029  0.6505468640227756
  0.0532211865515204  0.8849452820899745  0.1453528562109769
  0.1336565766494643  0.9147206502110159  0.6209405873120951
  0.6371843140914875  0.3968027568384214  0.1123102356499447
  0.6516004809819295  0.2987202378933889  0.6465634167010523
  0.5595496038253897  0.8682902556835321  0.1720549756284344
  0.6753594680518250  0.8542601203326550  0.6100286840372042
  0.4300775481539146  0.3442147919033348  0.0927506452217131
  0.4435063850731601  0.3906190332539549  0.6445674587085849
  0.3517156131877151  0.8189357445262851  0.1398202271661058
  0.4141924463900620  0.8794270381039286  0.5983865992486501
  0.8872212789112888  0.2983529902546580  0.1180724409796131
  0.9395883827449196  0.3878996713738748  0.6291133671651334
  0.8806738558285059  0.8853719953220446  0.0632729585788639
  0.9304884125185725  0.9004756884049674  0.5956154071594697
  0.1787332480978691  0.0908515384140089  0.0984041571581549
  0.1800462382423589  0.1689440601514768  0.5998378075154754
  0.1332913797830709  0.6232362730587121  0.0450480745063117
  0.1410034385757948  0.5864071174187393  0.6047786580626254
  0.7021430888509501  0.1410485795754370  0.1199500842365683
  0.6819334191346921  0.1173776059973567  0.6342976377580350
  0.6413939472330882  0.5717479577452368  0.1318503805134771
  0.6375923136269823  0.5988393773362044  0.5819540622023419
  0.4636053970989021  0.3700756346972470  0.1428294330381244
  0.3975232908278423  0.4345889413051876  0.6635225924334908
  0.3784534500934624  0.8471257779172313  0.1924852667004175
  0.4331990199526458  0.8714255330975050  0.6614788889900551
  0.8292902877769910  0.3303283317214186  0.1201660711889021
  0.8945926998271374  0.4050489866982824  0.5823699049753832
  0.8585242161117048  0.8253209081962629  0.0832715458069042
  0.8756072613444384  0.8751232597913924  0.5677242417382103
  0.1289180197557565  0.1120178041215948  0.0594189464520015
  0.1926075953822653  0.1210387550063312  0.5555941806148174
  0.1880486920135187  0.6187985889756340  0.0822686329612793
  0.0763586562787303  0.5987382851598824  0.6143250338628075
  0.6599863404572296  0.1414344505505041  0.0672949731508913
  0.6935817303512377  0.1506879093436043  0.5786281437498997
  0.6632861246161884  0.5976294078861639  0.0749474793736547
  0.6479543572305789  0.5928969589190828  0.6469489681848468
  0.4400512271648440  0.4104257884137559  0.0959138055463150
  0.4027160688293545  0.4192212114822059  0.5993981203586760
  0.4179385910199241  0.8135823664117192  0.1501317511577143
  0.4085635637223683  0.9299594095900557  0.6407981644981139
  0.8644848707488006  0.3209527997298593  0.1751735449071843
  0.9141538663118952  0.3417532529261294  0.5884943047419511
  0.9203528049876787  0.8431615467275365  0.0970423565289942
  0.9185948112880158  0.8348566658965711  0.5983725305188922
  0.1159331884284056  0.0730018385899770  0.1112831348798554
  0.2058163371678699  0.1119292204037338  0.6196401579734017
  0.1613313711705378  0.6787537305487691  0.0704023991538261
  0.1170238243252755  0.5939087077504629  0.6652130305424694
  0.6615978391319892  0.0898863371461699  0.1095992688483069
  0.6706257177087145  0.0885542938445403  0.5753728706745131
  0.5978542740836017  0.5934050194624230  0.0867283110068918
  0.6913918299637499  0.6261223304062320  0.6095417910011546
  0.1054579873058657  0.1811308442613599  0.1106201691827273
  0.1027621338970766  0.1038970892461587  0.5629622631004708
  0.1437127705316094  0.6461300545954599  0.1610576626740760
  0.1667025076694473  0.6751411071125476  0.6341660217216838
  0.6200425422907649  0.2006588517324585  0.1267342092000975
  0.6106346650635152  0.1870187130683615  0.6041575605512218
  0.6230984447175192  0.6850684273552261  0.0976947571389114
  0.6213166752831802  0.6936193211704178  0.5891634710494025
  0.3872906887982702  0.4106455261379174  0.1812310448813907
  0.3258896644726589  0.3765937030579641  0.6525943182789381
  0.4087746935145140  0.8788917174133032  0.0825463322954286
  0.3401705761752909  0.8871617919030852  0.6905868352968437
  0.9316787094226910  0.3829574723570872  0.1526445606670896
  0.8626988187500629  0.3214349784574265  0.6573291613666199
  0.8690134574580346  0.8515851317747362  0.1763346744695062
  0.8522327486894118  0.8404506506177843  0.6609794517660368
  0.3705027021088682  0.3429899627279291  0.1656600228715426
  0.3778226418794919  0.3344619922345934  0.6783769819231226
  0.4244106989289918  0.9140381143197341  0.1427595007126795
  0.3474359876421423  0.8278142968133814  0.6502113054789531
  0.8720755950470246  0.4154614857443235  0.1295670518016933
  0.8231315286853825  0.3742873423847841  0.6304686610569746
  0.8220000615990868  0.8930271812387144  0.1422882164252028
  0.8415163051441492  0.9102443218435423  0.6472390375288924
  0.1714894067368800  0.1727335224187317  0.1373604161771298
  0.1013256242463357  0.1288566877543444  0.6297443135812120
  0.1025539926578888  0.5954928938836535  0.1313085742669432
  0.0985133846834086  0.6876520433245560  0.6528270238098157
  0.6349563131869347  0.1564400638258547  0.1809309661171321
  0.5882227301157155  0.1224751430304381  0.6263849371664124
  0.6771419341945697  0.6642082545080937  0.1402934316330832
  0.6392125389561639  0.6910238539688377  0.6578994215258263
  0.1158239857357889  0.1424984711018399  0.1696485948876487
  0.1274743339283559  0.0639410292146880  0.6165340829042545
  0.0858232587718207  0.6649578644794838  0.1237915727240751
  0.1161593605091637  0.6814051339625963  0.5840789092415064
  0.5839152598073020  0.1390215975958883  0.1344980503090650
  0.5936034786033921  0.1357033124468462  0.5571885124858807
  0.6091196293750206  0.6572898470649584  0.1619548079270151
  0.5790435753326892  0.6585819534487607  0.6351245394200842
  0.3487882573063859  0.3959064750437397  0.1227713678256659
  0.3648199340983425  0.3355546903978687  0.6084121313859775
  0.3566915163040225  0.9119064658629576  0.1192988184999030
  0.3219655381182686  0.8887756291025805  0.6221831087546510
  0.9133544221722851  0.3789320687382579  0.0842244611229699
  0.8685293330458479  0.3870324265060713  0.6845222140869627
  0.8888943319289853  0.9169245950410249  0.1540741566652206
  0.9004516728954369  0.8887538615290934  0.6821066830699157
  0.3196688750201919  0.4109231732722074  0.3496168730704747
  0.3338396825467240  0.4113812939406588  0.8347969815290924
  0.4034686704813989  0.9357404799108985  0.3596442783802583
  0.3167850878245007  0.8874557277491223  0.8464387028648381
  0.8439877152721604  0.4105083830557228  0.3230871127301075
  0.8829275277312888  0.4448186910475763  0.8567343840399810
  0.8590370280029389  0.8883859160648105  0.3032801557674647
  0.8972696061123928  0.8606065078492919  0.8107238903766282
  0.1119932955721669  0.1004236524766672  0.4046996038709013
  0.1763887422039081  0.1335404785635760  0.8834126129812355
  0.1626015182009469  0.5777020509063024  0.3953707702776800
  0.1852037445014198  0.6528456764066984  0.8506717994766153
  0.6424589963167200  0.1697775273487610  0.3753557823093621
  0.6596642633535684  0.1004414512360398  0.8374459743584644
  0.6662221216927775  0.5856328399841585  0.3719398937992526
  0.6804342415161209  0.5941755366294058  0.8354581430020597
  0.3827927387932721  0.4332294841487097  0.3583490868366383
  0.3913027432672643  0.4447657776869687  0.8496090995387878
  0.3789825598616015  0.9031170419654400  0.3069232305973479
  0.3637706853769817  0.9351539549949431  0.8516036472110551
  0.9008457093876543  0.3795220474568906  0.3103523418907351
  0.8329796506591992  0.4289463981886222  0.8967321419728780
  0.8885022480423510  0.8309127706470210  0.3150183704716843
  0.8955808844113353  0.9241120737637490  0.8285506074189635
  0.0820374761467279  0.1371194609528055  0.3580518157695847
  0.1445644339984525  0.1715345396901248  0.8404189587262805
  0.1359002065224688  0.6338700921725986  0.4210165024448370
  0.1735255165104243  0.6002444326060866  0.8113864711383937
  0.6716546036446209  0.1160408119670773  0.3471697567113159
  0.6482211482137340  0.0951634243212670  0.9022852270622965
  0.6668975233570948  0.6522611934075446  0.3802933062065846
  0.6796833002727573  0.6567206356326742  0.8606549998132711
  0.3437118556767624  0.4250615073956633  0.4109357085768864
  0.3444307208354638  0.4374717117675337  0.8957517778148791
  0.4302791585638350  0.8785209404605192  0.3406432854644643
  0.3313002277703300  0.9151616905675841  0.9057117188880165
  0.9039734102992212  0.4359453694046754  0.3448477625794463
  0.8320122575253580  0.4047809111128278  0.8344909109794252
  0.9225112275018090  0.8873715134753963  0.3268982698948169
  0.8418362359831617  0.8956994498703951  0.7984457053187399
  0.1272801306358975  0.1647863237457588  0.3986235593153534
  0.1634588127978511  0.1104837415663867  0.8226500723210098
  0.1956850550485881  0.6358301793143250  0.3919557219308158
  0.1806995971868209  0.5904455481931136  0.8752615702617839
  0.6600509666638211  0.1170576850888725  0.4119259770238161
  0.6591197596947233  0.1554148539977521  0.8748385724792381
  0.6631459700902341  0.6267765460795537  0.3205065047791009
  0.6623656862413121  0.6470586974621463  0.7984396433686526
  0.1785314525610146  0.1513891787129672  0.3223069887830745
  0.0627667479169757  0.1261598951575325  0.8469095683092095
  0.1588840880058550  0.6175443691028162  0.3067573239742319
  0.0956415008548141  0.6641465022574959  0.8435424861491105
  0.5741880535102140  0.1198728344131228  0.3319398669656231
  0.5745218662211163  0.1388413977697529  0.8208824891703758
  0.5774962823089190  0.6624227183816380  0.3681221390044789
  0.5995471963334539  0.5875979574401380  0.8777865332920887
  0.4140737329489226  0.3540665654033353  0.3924304070985185
  0.4180665137821640  0.3788401386382898  0.9120933130778556
  0.3402850826481882  0.8921569230034915  0.4095755132642642
  0.4231327466551027  0.8816031062217333  0.9012902036843392
  0.8802729062378238  0.4001070752526573  0.4223264337864561
  0.8596826628945933  0.3343447069396349  0.8934431602473105
  0.8342569705737082  0.9025819983810615  0.3867787594089577
  0.8717538533579844  0.8455874221515043  0.8977971663799609
  0.1444333506712425  0.0899186982307592  0.3078210245736493
  0.0874258631675714  0.1240050655619337  0.9132811735180506
  0.1260971677511093  0.6738292570085223  0.3360885987417201
  0.0959801409261100  0.6166209398663012  0.8964786976670620
  0.5670547727462797  0.1107622931275492  0.4018336378458082
  0.5673264980409404  0.1532054288925905  0.8898534121730440
  0.5780620806434591  0.5965026786144914  0.3942572137252690
  0.5798495417258204  0.6136874300761596  0.8145270497876560
  0.3684827451531899  0.3341748403274113  0.3409802034193296
  0.4074215752217191  0.3495227343280299  0.8476957198593849
  0.3750361329107553  0.8312554744046660  0.3918522026744503
  0.4043187123091065  0.8461741221454439  0.8418697183546245
  0.9107989718881525  0.3432271971501707  0.3926316191173427
  0.9131446721067940  0.3767208292776649  0.9172506572740307
  0.8977298758505430  0.8792089782938937  0.4109818020254836
  0.8076618822606638  0.8621414082250413  0.8714423414740029
  0.3478947566243251  0.3326019379570939  0.4087850950203431
  0.3587290009190266  0.3417946729966267  0.8990218599238153
  0.3225383313265465  0.8560833028328438  0.3514197399082862
  0.3748234569056187  0.8292795333636537  0.9043256126560217
  0.8397888383012363  0.3496095692035323  0.3912596179015771
  0.9133321602009875  0.3540791755694820  0.8503702621609477
  0.8466592787813776  0.8329715323937529  0.3939287713173507
  0.8483939715226719  0.9126567391962274  0.9019191755188681
  0.1920554964885738  0.0926657970745177  0.3608986668545877
  0.0958703740369345  0.0673148973967832  0.8713508029356916
  0.0936982340906505  0.6105781778440501  0.3360964906205267
  0.0853909549215383  0.5945699762544233  0.8303093778479147
  0.5982041118258048  0.0599290395234605  0.3628175529467211
  0.5622674029963195  0.0857852632331409  0.8675634714223636
  0.5750331902256380  0.6062855261404883  0.3240521327873859
  0.5870381223298994  0.6573693899820506  0.8699237011864376
  0.3081824125488785  0.0910009038449212  0.3924608327090682
  0.3546519847369776  0.0626440756949247  0.9018139184116624
  0.3612538329044808  0.5543392259248168  0.3696704790385303
  0.3347249626583810  0.5916778023124435  0.9026343545924753
  0.8781666141408333  0.0404967835747179  0.3724149103037458
  0.8073110732281116  0.0876575206218262  0.8893357362729815
  0.8277433292666984  0.5739889227963142  0.3757158861330233
  0.8007429049087952  0.6303379474979717  0.8973438118534550
  0.1547298232570657  0.3626621549073027  0.4044416571071248
  0.1691696365125401  0.3368210237040378  0.8979096708445780
  0.1592601150333347  0.8114055073331394  0.3914409017274431
  0.1316829117426210  0.8255092815016154  0.9050407405930537
  0.6625450312365619  0.3460317556507340  0.3852197142821255
  0.6473270054488289  0.3452551895530660  0.9101127859875536
  0.6215933726936703  0.8118045138949388  0.3515498940962865
  0.6270183803037784  0.8182684044142093  0.8499493644150578
  0.3675017651077657  0.0645830749664846  0.4064926123045821
  0.3067799730341773  0.0814645830611916  0.8603713322304626
  0.3140068999063559  0.5938030732925178  0.3458568899292068
  0.3665101964194100  0.5571277390752694  0.8550378676301407
  0.8213345524864343  0.0744974533745008  0.3805053426894721
  0.8597610396210608  0.0481007981302087  0.9000066335430126
  0.8172406461167550  0.6398958674087520  0.3766106062274250
  0.8307649938888778  0.5730648038200606  0.8810050847428094
  0.1368802983998981  0.3192633406744668  0.3564057381586033
  0.1307216708404652  0.2974984889864352  0.8586267212443116
  0.0924669696865524  0.8079386983414674  0.3850982993713972
  0.0662020451953660  0.8247841689369897  0.8895198409791585
  0.6050127280783429  0.3303751946127974  0.3548387889220582
  0.6327643926145688  0.3132387387110112  0.8531897211967280
  0.5955442772715370  0.8306032265881776  0.4110488364119860
  0.5728065743798662  0.8413352924801403  0.8829275865589823
  0.3408177970638174  0.0543208050871758  0.3465328216429898
  0.3204843040126530  0.1174315960907314  0.9145209454821730
  0.3202272785947803  0.5871907809317483  0.4113255054613759
  0.3136660448211027  0.5943037772151228  0.8399396274396371
  0.8713195133104328  0.0811412934793947  0.4246624544912122
  0.8322031303038668  0.0514859263216461  0.8401990943153776
  0.8527544924020701  0.6112043487424822  0.4249344339343199
  0.8058591844268731  0.6122051367108695  0.8341884798303876
  0.0936873771597468  0.3355101351518064  0.4051522545417194
  0.1051658284428834  0.3275688754343926  0.9133202875705753
  0.1189653521137703  0.8404983983721107  0.4363231960467710
  0.0880822638141718  0.8635887955829411  0.9378048125013210
  0.6052292304836041  0.3657789272260558  0.4121082165493078
  0.5830728769709459  0.3365198538787035  0.8921353288306509
  0.6550180328572209  0.8530461685983408  0.3927966631483294
  0.6333281883569796  0.8426090492727412  0.9120090434232698
  0.1352247328486073  0.4068770346138135  0.3200797828312642
  0.1501259186979843  0.3911718141863956  0.8249189099480205
  0.1319294845103362  0.8733216110665866  0.3240347792843922
  0.1271104105606530  0.8785084323458604  0.8279058132929761
  0.6460277735816178  0.4012416272253616  0.3062724573412809
  0.6374734178568190  0.3892583145277426  0.8084786288342504
  0.5520720000868985  0.8785692121332016  0.3384804140979911
  0.5968855512723868  0.9086144540018556  0.8205399553424154
  0.3667798748500140  0.1636528298217025  0.3840911644978824
  0.4069264355648755  0.1429751819783259  0.8850756158017559
  0.3567877776046365  0.6723419369063230  0.3844769234460763
  0.4251153843978769  0.6246533123459821  0.8502695809511160
  0.8718781525604311  0.1195312299397924  0.3135425018118320
  0.8618514529392660  0.1388181189818239  0.8239302813599191
  0.8869149513952251  0.6292249790890868  0.3138023703531699
  0.8907902991798160  0.6521436811532049  0.9058826219702408
  0.0903594942469880  0.4278503811045062  0.3711319117707865
  0.1036560077136985  0.4114582499688282  0.8753475297403462
  0.1558478274975038  0.9088484501393724  0.3809254359511451
  0.1325778843491472  0.9231149305531688  0.8829670831398670
  0.6542492840323887  0.4382773470470330  0.3660719625333025
  0.6490160015676528  0.4241214311134335  0.8688567471284815
  0.6158163528439397  0.9078621454277425  0.3241869281311148
  0.6653645045602042  0.9030847199788686  0.8405531868443864
  0.3537568576100549  0.1414724559264802  0.3180156804350541
  0.3596913863789561  0.1604213647262363  0.8348645956198217
  0.4010920124370464  0.6377153317816250  0.3406336412445520
  0.3807469233340125  0.6672265930496083  0.8861179295194708
  0.9299467564813780  0.1166283357432488  0.3547543050036598
  0.9176874168012625  0.1012728027879326  0.8482652836428560
  0.9212582719521704  0.5847287115376768  0.3578824870320866
  0.8712611209294752  0.6780338737518576  0.8428509780936554
  0.4147341786494724  0.1222644460526450  0.3497641686189766
  0.3993416624927069  0.1013118807752447  0.8275827456628901
  0.4079507627031971  0.6284767751159859  0.4104202856636425
  0.3716261240097492  0.6589154081922223  0.8165758368801233
  0.8750744660513393  0.1594621121401188  0.3724217070734482
  0.8824421939342427  0.1457845076868138  0.8917383801924376
  0.9171749103999461  0.6543671032061060  0.3731453025300690
  0.9069437031702359  0.6158657767819068  0.8464247027519064
  0.0686456256208284  0.3800260429664828  0.3229181520069641
  0.0819538716576126  0.3678940575402544  0.8236203224219502
  0.0852931015716295  0.9025969896867685  0.3705544683835975
  0.0682471321327444  0.9117446867332544  0.8533183106201003
  0.5884004134792072  0.4272242135629343  0.3402441176141899
  0.5817797816218439  0.4131994271701514  0.8473630950241419
  0.5837412248058448  0.9200705515477690  0.3863212914844432
  0.6171591829637093  0.9314382746318661  0.8850208661523488
  0.0106645136886645  0.0148098220537662  0.1158487826164291
  0.0113718469796950  0.9903794062295662  0.6208946488555472
  0.0174251978841273  0.4990792838009924  0.1149573077950338
  0.0142596004326414  0.4982134624525246  0.6151816591212220
  0.5098526349716858  0.0087932058904801  0.1191941979712021
  0.5213856251484259  0.0076108039710228  0.6154590643658937
  0.5215193649708052  0.4918735506871611  0.1210071814744876
  0.5273036892782905  0.4955765984919546  0.6141339974170016
  0.2426896390362637  0.2545422222643858  0.1296326761917137
  0.2408193199536461  0.2456437539265941  0.6307365672567413
  0.2348679013744732  0.7566624090853997  0.1292999167443951
  0.2277431841935997  0.7758846923403986  0.6250723556497167
  0.7387012404834139  0.2691487397059869  0.1289467328116667
  0.7412369253492679  0.2577439411137619  0.6288020194485279
  0.7528315862609229  0.7683717577850722  0.1261474498020110
  0.7422005684898850  0.7689564382940057  0.6349832007786836
  0.9924602183703304  0.0037613417105297  0.3786725542280510
  0.9819776768146840  0.0063354277830606  0.8798526632231214
  0.9830045400292222  0.4948523124834740  0.3804216968933642
  0.9767788830511922  0.4869698575990519  0.8771075759886661
  0.4866963107689237  0.9993822882470036  0.3784750641482226
  0.4825667727403095  0.9921617991267786  0.8797539081640262
  0.4668929582375842  0.4908124140949749  0.3774237430380201
  0.4815979296668350  0.4904438477923275  0.8827725433563420
  0.2618082295055298  0.2337958327764326  0.3739758369014972
  0.2545408114466475  0.2286030179055570  0.8795846132469738
  0.2572593608464036  0.7426674045006930  0.3790493601020042
  0.2521452890954262  0.7317724664998102  0.8707368002686990
  0.7693753288330132  0.2257748136142369  0.3778895119021771
  0.7666769107661757  0.2150825527616383  0.8721950550201918
  0.7502519522461767  0.7137011548649457  0.3738279219426248
  0.7596750023033971  0.7229541283216813  0.8857768779947540
  0.2427969134254916  0.9841594788621320  0.3633191437432977
  0.2334362625596988  0.0149610591847458  0.8598101804794208
  0.2397343055864751  0.5041250703290387  0.3587054526751495
  0.2231247342994242  0.4954787427763083  0.8550337141900398
  0.7175948053047898  0.0127526592146599  0.3613943806515979
  0.7305757113508466  0.0103362549042857  0.8617173707333985