POSCAR_BA2MAPbCl3                       
   1.00000000000000     
     5.6684491361243525    0.1896772663011924    0.0407035884825946
     0.1946262739187846    5.6685781835676758    0.0162041955030570
     0.3000820796260508    0.0874924900570464   28.2114645666719497
   C    N    H    Cl   I    Pb
     9     3    30     4     3     2
Direct
  0.3079332747437946  0.1028601943869565  0.2240608220942297
  0.2559617574441316  0.0056786926383520  0.1752329622473484
  0.8161423965906226 -0.0152742142467848  0.8233010337320557
 -0.0206360690733893  0.0688069024921606  0.7838257065266231
  0.9120192378815053 -0.0253396101817656  0.7360662088556540
  0.8706859964056251  0.0911365524329988  0.8711592922609496
  0.1340975429336298  0.0220120310895071  0.2618705309708580
  0.1974238658760165  0.1041092594514327  0.3109031329833242
  0.0903536194515487  0.1065786455565010  0.5270142819573005
  0.8879795815770470 -0.0419656425294138  0.5188045149457845
  0.0079655252023435  0.0530053291043928  0.3467012118876434
  0.0869028699176689  0.0336696495656836  0.6978540835442452
  0.9436008279085181  0.7920538189254808  0.5060017403638437
  0.3786699082342846  0.0678178342213933  0.1479208263268674
  0.2727192705481106  0.8107093754363472  0.1754533026590645
  0.4900956275947058  0.0443235429125114  0.2342505389841421
  0.3637161163913984  0.0141402924185631  0.3229712777419298
  0.7560250736305585  0.0261609998457965  0.8996102904229429
  0.0559755208902347  0.0458384860228157  0.8808484724967772
  0.8337674204461396  0.7895532927385165  0.8253011221870986
  0.1647464067070540  0.0095341958068099  0.7914852691298013
  0.9092394588228544  0.7808442135162074  0.7362188256555202
  0.1339639872954935  0.8269975925921914  0.2618371243294250
  0.9535885919783024  0.8816602814505569  0.3437920230539460
  0.0625019749420983  0.0777804997151656  0.3809989244097682
  0.2062968342258263  0.0177943163212427  0.5533368479383074
  0.1874076407400244  0.1264663252743708  0.4934246977750670
  0.2480191422373272  0.9409793357869795  0.7042901905603698
  0.0293402364410116 -0.0188557323289503  0.6651070915905507
  0.9527922232924175  0.0917798061825992  0.2533191333165652
  0.8606110602288518  0.1699265321974010  0.3409093820193969
  0.7902578171818307 -0.0643566524972740  0.5499101236534688
  0.7714709448387953  0.0343111228288828  0.4941137712251749
  0.0743697290315106  0.0615008552131664  0.1645388998951217
  0.2999182710994253  0.2981642816413410  0.2230729678677480
  0.2141502087583910  0.2963186102688844  0.3119012772930712
  0.8439829870238637  0.2856169371213437  0.8700474814327528
  0.6303665720443064  0.0331338216637922  0.8140696100158814
 -0.0307032136322302  0.2641472901886779  0.7826299593218649
  0.7380262266864759  0.0511137146022910  0.7250326994071152
  0.0201260152355867  0.2792501633076621  0.5401215039253140
  0.1137908297524247  0.2131033572936631  0.6963497094915746
  0.0213934029648724  0.5636087148526914  0.4234653898881016
  0.0463655079900463  0.5427817860975784  0.6313301150749944
  0.5376146268456986  0.0588605955154235  0.4192315159322941
  0.5983775469048616  0.0208820163978028  0.6255137766342324
  0.6730365914871204  0.5628079410415545  0.3012655377921803
  0.5070345093620946  0.5270009983382976  0.5229405766394807
  0.4440856703956925  0.5234390487897316  0.7454361308362059
  0.5306518635871709  0.5608509307887354  0.4107420965063617
  0.5470471399363328  0.5201517297497082  0.6364358231996914
 
  0.00000000E+00  0.00000000E+00  0.00000000E+00
  0.00000000E+00  0.00000000E+00  0.00000000E+00
  0.00000000E+00  0.00000000E+00  0.00000000E+00
  0.00000000E+00  0.00000000E+00  0.00000000E+00
  0.00000000E+00  0.00000000E+00  0.00000000E+00
  0.00000000E+00  0.00000000E+00  0.00000000E+00
  0.00000000E+00  0.00000000E+00  0.00000000E+00
  0.00000000E+00  0.00000000E+00  0.00000000E+00
  0.00000000E+00  0.00000000E+00  0.00000000E+00
  0.00000000E+00  0.00000000E+00  0.00000000E+00
  0.00000000E+00  0.00000000E+00  0.00000000E+00
  0.00000000E+00  0.00000000E+00  0.00000000E+00
  0.00000000E+00  0.00000000E+00  0.00000000E+00
  0.00000000E+00  0.00000000E+00  0.00000000E+00
  0.00000000E+00  0.00000000E+00  0.00000000E+00
  0.00000000E+00  0.00000000E+00  0.00000000E+00
  0.00000000E+00  0.00000000E+00  0.00000000E+00
  0.00000000E+00  0.00000000E+00  0.00000000E+00
  0.00000000E+00  0.00000000E+00  0.00000000E+00
  0.00000000E+00  0.00000000E+00  0.00000000E+00
  0.00000000E+00  0.00000000E+00  0.00000000E+00
  0.00000000E+00  0.00000000E+00  0.00000000E+00
  0.00000000E+00  0.00000000E+00  0.00000000E+00
  0.00000000E+00  0.00000000E+00  0.00000000E+00
  0.00000000E+00  0.00000000E+00  0.00000000E+00
  0.00000000E+00  0.00000000E+00  0.00000000E+00
  0.00000000E+00  0.00000000E+00  0.00000000E+00
  0.00000000E+00  0.00000000E+00  0.00000000E+00
  0.00000000E+00  0.00000000E+00  0.00000000E+00
  0.00000000E+00  0.00000000E+00  0.00000000E+00
  0.00000000E+00  0.00000000E+00  0.00000000E+00
  0.00000000E+00  0.00000000E+00  0.00000000E+00
  0.00000000E+00  0.00000000E+00  0.00000000E+00
  0.00000000E+00  0.00000000E+00  0.00000000E+00
  0.00000000E+00  0.00000000E+00  0.00000000E+00
  0.00000000E+00  0.00000000E+00  0.00000000E+00
  0.00000000E+00  0.00000000E+00  0.00000000E+00
  0.00000000E+00  0.00000000E+00  0.00000000E+00
  0.00000000E+00  0.00000000E+00  0.00000000E+00
  0.00000000E+00  0.00000000E+00  0.00000000E+00
  0.00000000E+00  0.00000000E+00  0.00000000E+00
  0.00000000E+00  0.00000000E+00  0.00000000E+00
  0.00000000E+00  0.00000000E+00  0.00000000E+00
  0.00000000E+00  0.00000000E+00  0.00000000E+00
  0.00000000E+00  0.00000000E+00  0.00000000E+00
  0.00000000E+00  0.00000000E+00  0.00000000E+00
  0.00000000E+00  0.00000000E+00  0.00000000E+00
  0.00000000E+00  0.00000000E+00  0.00000000E+00
  0.00000000E+00  0.00000000E+00  0.00000000E+00
  0.00000000E+00  0.00000000E+00  0.00000000E+00
  0.00000000E+00  0.00000000E+00  0.00000000E+00
