3D\Atomistic                            
   1.00000000000000     
     5.5739628026071264    0.0258931488177573   -0.1450714668892593
     0.0255009196332110    5.5969176047222229   -0.0023904954059325
    -2.0418328568958972   -0.0392850660259217   64.0961145782239328
   C    N    H    Cl   Pb
    13     7    54    19     6
Direct
  0.9637210597156660  0.0618271582475609  0.6205637154612630
  0.3203231810036966  0.0318090894305640  0.2267853929869904
  0.2798658522213532  0.0311510241760644  0.2030247794812208
  0.8118918977155259  0.0225789163855414  0.8257510646625540
  0.0383980367107733  0.0296711553372148  0.8133607268046191
  0.9722287394266466  0.0176924570461612  0.7900578898592598
  0.8687624319027196  0.0392616582030473  0.8492908565822836
  0.9573214634321496  0.1256942733662800  0.4393021791100247
  0.0841699862411210  0.0299119910966606  0.2378155921277529
  0.1290652195552037  0.0299873623032986  0.2614471023654990
  0.1178232226083686  0.0393108638029192  0.3448855585540631
  0.1357622830353045  0.1235590773827907  0.5251059034220966
  0.1105595198512287  0.0946725687827053  0.6995874180096558
  0.9005372852596486  0.0011697044668313  0.5260791089481548
  0.8721823935509652  0.9759077710202809  0.6981905398821109
  0.9178501366223394  0.0319814561726812  0.3594248613818516
  0.8959436136779302  0.0279064432302794  0.2718646073271277
  0.1946024313752258  0.0024508756565720  0.4385982343836347
  0.1529707247973452  0.0546638756778451  0.6049320011340872
  0.1915500762987445  0.0207405960213046  0.7776299772224959
  0.8053217718788691  0.8870257372582071  0.3558610095414642
  0.9834544991769718  0.0097533810722449  0.3747608720842225
  0.8476059627814655  0.0786634804048391  0.4251383202047356
  0.8708892720355547  0.0657025895958996  0.4533015556048718
  0.9211646648888674  0.8180449803860544  0.5281738962572409
  0.8543797326811160  0.9001665412351115  0.6187699567550777
  0.8877091044182681  0.7914230390441579  0.6970985897945964
  0.4517770544159453  0.0323881650374135  0.1953708128889322
  0.1803839129985120  0.8709721570347798  0.1975902732800016
  0.4290476597711283  0.8740263939208422  0.2318803524468880
  0.2317333841456092  0.8703971449106299  0.2668378681327452
  0.7037064707165548  0.0338378106329202  0.8579262738562883
  0.9860819636774181  0.8899424998369654  0.8548852380536995
  0.7141198111674745  0.8555902615703614  0.8219328939356342
  0.1591171226234307  0.8779739148376364  0.8179332080696490
  0.8752674608552629  0.8519015104793922  0.7859383069213425
  0.9790574119868408  0.8697984463930978  0.2330288695671064
  0.7966078174310877  0.8750062241773244  0.2676195072213713
  0.9197974046786492  0.0250431304150024  0.2879845427895141
  0.2200996689654124  0.8709046772712892  0.3462383508674658
  0.1788201899681152  0.8179495645407525  0.4377689522813215
  0.2417668844754325  0.0901237073177639  0.5398003017549654
  0.2281805776421238  0.0507954707583064  0.5118120138126139
  0.2633043653907335  0.9035052998152383  0.6072487557627899
  0.0750734988181823  0.0453979080329621  0.5898821511945999
  0.2159626308133248  0.0231380262890337  0.7132101412432277
  0.2015823368173384  0.0568074701813897  0.6851970508203978
  0.3023240853750123  0.8728748573622183  0.7816656140061045
  0.1464116670427406  0.0052653174522976  0.7617963191372683
  0.9734952152761019  0.1882651431559274  0.2330495203952286
  0.7935283460857525  0.1814826710763474  0.2679301689440585
  0.8145772638704087  0.1890075091813186  0.3582500169141844
  0.9869496878124092  0.3190298436217244  0.4399249006822234
  0.8061739642755873  0.0634309431848223  0.5385675427560426
  0.7927957005426790  0.0281912067580125  0.5124566220881177
  0.0524216561046334  0.0674210201054602  0.6362644114122473
  0.8513313242334066  0.2219672401001179  0.6177524396093672
  0.7764062125815865  0.0125286227154462  0.7113315477329828
  0.7678672030422444  0.0319448820937406  0.6850484294906233
  0.1748734207771309  0.1895145988295319  0.1975597039672469
  0.4234909632299559  0.1914328343611431  0.2318621272210203
  0.2261814861739739  0.1910205749621233  0.2669036229655596
  0.9620761289263376  0.2073548112379750  0.8534234964825769
  0.6912529366967397  0.1716337083097473  0.8205503208058242
  0.1388889292867067  0.1958983665840831  0.8169577497077189
  0.8583937387882757  0.1708959581106101  0.7849231717677404
  0.0386550460674072  0.0607593930524720  0.3289569153091294
  0.2343449199954762  0.1910499369054018  0.3490731961086916
  0.2841619249678783  0.0539394282674472  0.4255233186298319
  0.3050843160565821  0.0406415438161482  0.4518021342259936
  0.1023970463952598  0.3157170914630187  0.5230517780525675
  0.2602660417849295  0.2070221347210887  0.6061904134497417
  0.0820312625702673  0.2875896526623948  0.7013002164181499
  0.2885657572037124  0.1788067600293801  0.7803334287065345
  0.0539648142170302  0.5385267877602810  0.3043870956176286
  0.9917667234336237  0.6263136361253097  0.4000526172442628
  0.0488574500025523  0.6245088369762642  0.4820670545002386
  0.0968620789349821  0.6227509124569595  0.5636437905466276
 -0.0033438847964559  0.5734635093090137  0.6603494961019096
  0.0814327960986202  0.5909406657463161  0.7407245425319166
  0.5629602525794479  0.0336862439928405  0.3108917531973074
  0.4467065974021182  0.0678881749189697  0.3931813378617183
  0.5470866389406059  0.0579495424485419  0.4823697019160672
  0.6435993316977787  0.0769072780244132  0.5716958223518392
  0.5247155451093249  0.0496683343484438  0.6545088780748858
  0.6139753453782429  0.0391085871342766  0.7433216000530690
  0.6041878642438361  0.5294795886432047  0.2614278867639794
  0.6216151967503016  0.5349904503508245  0.3514868710941406
  0.4987229121261659  0.5184567725356628  0.4380971276714212
  0.5894639806863702  0.5226625586156626  0.5262394505023081
  0.4509629495598229  0.5525082204788355  0.6122607296778029
  0.5583571035187236  0.5031513548507345  0.7013684566134584
  0.4762261864147772  0.5215584343183129  0.7894529968820385
  0.5529416652253998  0.5331857745575499  0.3053170205500824
  0.4983010780906978  0.5651369530081384  0.3943504853786752
  0.5488882999655160  0.5561226187830620  0.4821526840439646
  0.5898283280345278  0.5741810935322255  0.5698400393006795
  0.4925791268154650  0.5460983449825629  0.6580819185456835
  0.5765836841856450  0.5372517667253609  0.7457938051420173
 
  0.00000000E+00  0.00000000E+00  0.00000000E+00
  0.00000000E+00  0.00000000E+00  0.00000000E+00
  0.00000000E+00  0.00000000E+00  0.00000000E+00
  0.00000000E+00  0.00000000E+00  0.00000000E+00
  0.00000000E+00  0.00000000E+00  0.00000000E+00
  0.00000000E+00  0.00000000E+00  0.00000000E+00
  0.00000000E+00  0.00000000E+00  0.00000000E+00
  0.00000000E+00  0.00000000E+00  0.00000000E+00
  0.00000000E+00  0.00000000E+00  0.00000000E+00
  0.00000000E+00  0.00000000E+00  0.00000000E+00
  0.00000000E+00  0.00000000E+00  0.00000000E+00
  0.00000000E+00  0.00000000E+00  0.00000000E+00
  0.00000000E+00  0.00000000E+00  0.00000000E+00
  0.00000000E+00  0.00000000E+00  0.00000000E+00
  0.00000000E+00  0.00000000E+00  0.00000000E+00
  0.00000000E+00  0.00000000E+00  0.00000000E+00
  0.00000000E+00  0.00000000E+00  0.00000000E+00
  0.00000000E+00  0.00000000E+00  0.00000000E+00
  0.00000000E+00  0.00000000E+00  0.00000000E+00
  0.00000000E+00  0.00000000E+00  0.00000000E+00
  0.00000000E+00  0.00000000E+00  0.00000000E+00
  0.00000000E+00  0.00000000E+00  0.00000000E+00
  0.00000000E+00  0.00000000E+00  0.00000000E+00
  0.00000000E+00  0.00000000E+00  0.00000000E+00
  0.00000000E+00  0.00000000E+00  0.00000000E+00
  0.00000000E+00  0.00000000E+00  0.00000000E+00
  0.00000000E+00  0.00000000E+00  0.00000000E+00
  0.00000000E+00  0.00000000E+00  0.00000000E+00
  0.00000000E+00  0.00000000E+00  0.00000000E+00
  0.00000000E+00  0.00000000E+00  0.00000000E+00
  0.00000000E+00  0.00000000E+00  0.00000000E+00
  0.00000000E+00  0.00000000E+00  0.00000000E+00
  0.00000000E+00  0.00000000E+00  0.00000000E+00
  0.00000000E+00  0.00000000E+00  0.00000000E+00
  0.00000000E+00  0.00000000E+00  0.00000000E+00
  0.00000000E+00  0.00000000E+00  0.00000000E+00
  0.00000000E+00  0.00000000E+00  0.00000000E+00
  0.00000000E+00  0.00000000E+00  0.00000000E+00
  0.00000000E+00  0.00000000E+00  0.00000000E+00
  0.00000000E+00  0.00000000E+00  0.00000000E+00
  0.00000000E+00  0.00000000E+00  0.00000000E+00
  0.00000000E+00  0.00000000E+00  0.00000000E+00
  0.00000000E+00  0.00000000E+00  0.00000000E+00
  0.00000000E+00  0.00000000E+00  0.00000000E+00
  0.00000000E+00  0.00000000E+00  0.00000000E+00
  0.00000000E+00  0.00000000E+00  0.00000000E+00
  0.00000000E+00  0.00000000E+00  0.00000000E+00
  0.00000000E+00  0.00000000E+00  0.00000000E+00
  0.00000000E+00  0.00000000E+00  0.00000000E+00
  0.00000000E+00  0.00000000E+00  0.00000000E+00
  0.00000000E+00  0.00000000E+00  0.00000000E+00
  0.00000000E+00  0.00000000E+00  0.00000000E+00
  0.00000000E+00  0.00000000E+00  0.00000000E+00
  0.00000000E+00  0.00000000E+00  0.00000000E+00
  0.00000000E+00  0.00000000E+00  0.00000000E+00
  0.00000000E+00  0.00000000E+00  0.00000000E+00
  0.00000000E+00  0.00000000E+00  0.00000000E+00
  0.00000000E+00  0.00000000E+00  0.00000000E+00
  0.00000000E+00  0.00000000E+00  0.00000000E+00
  0.00000000E+00  0.00000000E+00  0.00000000E+00
  0.00000000E+00  0.00000000E+00  0.00000000E+00
  0.00000000E+00  0.00000000E+00  0.00000000E+00
  0.00000000E+00  0.00000000E+00  0.00000000E+00
  0.00000000E+00  0.00000000E+00  0.00000000E+00
  0.00000000E+00  0.00000000E+00  0.00000000E+00
  0.00000000E+00  0.00000000E+00  0.00000000E+00
  0.00000000E+00  0.00000000E+00  0.00000000E+00
  0.00000000E+00  0.00000000E+00  0.00000000E+00
  0.00000000E+00  0.00000000E+00  0.00000000E+00
  0.00000000E+00  0.00000000E+00  0.00000000E+00
  0.00000000E+00  0.00000000E+00  0.00000000E+00
  0.00000000E+00  0.00000000E+00  0.00000000E+00
  0.00000000E+00  0.00000000E+00  0.00000000E+00
  0.00000000E+00  0.00000000E+00  0.00000000E+00
  0.00000000E+00  0.00000000E+00  0.00000000E+00
  0.00000000E+00  0.00000000E+00  0.00000000E+00
  0.00000000E+00  0.00000000E+00  0.00000000E+00
  0.00000000E+00  0.00000000E+00  0.00000000E+00
  0.00000000E+00  0.00000000E+00  0.00000000E+00
  0.00000000E+00  0.00000000E+00  0.00000000E+00
  0.00000000E+00  0.00000000E+00  0.00000000E+00
  0.00000000E+00  0.00000000E+00  0.00000000E+00
  0.00000000E+00  0.00000000E+00  0.00000000E+00
  0.00000000E+00  0.00000000E+00  0.00000000E+00
  0.00000000E+00  0.00000000E+00  0.00000000E+00
  0.00000000E+00  0.00000000E+00  0.00000000E+00
  0.00000000E+00  0.00000000E+00  0.00000000E+00
  0.00000000E+00  0.00000000E+00  0.00000000E+00
  0.00000000E+00  0.00000000E+00  0.00000000E+00
  0.00000000E+00  0.00000000E+00  0.00000000E+00
  0.00000000E+00  0.00000000E+00  0.00000000E+00
  0.00000000E+00  0.00000000E+00  0.00000000E+00
  0.00000000E+00  0.00000000E+00  0.00000000E+00
  0.00000000E+00  0.00000000E+00  0.00000000E+00
  0.00000000E+00  0.00000000E+00  0.00000000E+00
  0.00000000E+00  0.00000000E+00  0.00000000E+00
  0.00000000E+00  0.00000000E+00  0.00000000E+00
  0.00000000E+00  0.00000000E+00  0.00000000E+00
  0.00000000E+00  0.00000000E+00  0.00000000E+00
