MAPbI3 tetragonal T=300 K               
   1.00000000000000     
    25.0541992188000009    0.0000000000000000    0.0000000000000000
     0.0000000000000000   25.0542068481000015    0.0000000000000000
     0.0000000000000000    0.0000000000000000   25.3479995727999992
   C    H    I    N    Pb
    64   384   192    64    64
Direct
  0.1297537035937941  0.1032401407945870  0.1476407643730652
  0.1219516742660561  0.1043139081477712  0.6411427199834993
  0.1281372497551136  0.6143118782447412  0.1405244482943720
  0.1020092989082334  0.6053552804920233  0.6455806293038234
  0.6289185287606834  0.1034571404460439  0.1420182263501277
  0.6311916605976966  0.1013095702612687  0.6377693657568733
  0.6076855122714152  0.5956864103761119  0.1340634022540747
  0.6301382299139235  0.6081666574605342  0.6432638966124986
  0.3695022170642643  0.3476068634045320  0.1353727587495557
  0.3870960202214495  0.3460070808734212  0.6428378300714734
  0.3699430716644274  0.8518118661683088  0.1386087955373578
  0.3866614922796052  0.8615731511269470  0.6414972420940668
  0.8816855807612048  0.3538984236285014  0.1422548732270174
  0.8868646912450497  0.3632986344630163  0.6386536786453448
  0.8705095761240075  0.8460495277222562  0.1521925119675532
  0.8897398879543281  0.8620484448407485  0.6456762585466145
  0.1309497456833674  0.4109015517740746  0.1472721840245301
  0.1468950906330645  0.3598311536065955  0.6447722627618308
  0.1368656317801723  0.8832170730556935  0.1456800520799494
  0.1532255468334545  0.8715296503369432  0.6556803681764886
  0.6499690647980046  0.4037428825979270  0.1382000247845243
  0.6468965558897162  0.3673582148048825  0.6349706821892445
  0.6468719662324661  0.8669940070793151  0.1277418207282975
  0.6419007106948276  0.8722450911978504  0.6428437990267849
  0.4054756882889376  0.1322510966982570  0.1509344212770428
  0.3915469211372737  0.1339772228861504  0.6478194185463692
  0.4048591016812460  0.6139954080213642  0.1300140457037825
  0.3881176782455986  0.6447200030648237  0.6496282806619074
  0.8911956107810287  0.1306989409161317  0.1293968156643414
  0.8852762749402493  0.1171235310703752  0.6499369316340370
  0.8979229725001791  0.6255269407747373  0.1432787894802245
  0.9048820482112061  0.6373427984255846  0.6377891163560691
  0.1527038168795138  0.1259696403881217  0.3967696095231030
  0.1488542127735962  0.1256075658758640  0.8986627734196400
  0.1434981255327550  0.6319790953116804  0.3905413018172194
  0.1446202418719948  0.6157938712243851  0.8948726755399923
  0.6487904756989631  0.1185476384032010  0.3837985411275914
  0.6429828057947297  0.1080748949040704  0.8899681068397588
  0.6478402045330975  0.6355617380048608  0.3913601437576311
  0.6608707437105423  0.6376586844059661  0.8779628220672859
  0.4033950517735007  0.3735780554209915  0.3892564260638052
  0.4100601063338014  0.3841104301467254  0.8854262627738537
  0.3957447750454786  0.8824722108635578  0.3864637780046685
  0.3966490614166250  0.8707508925472209  0.8970631236626004
  0.9064821601392019  0.3800199458193961  0.3897701492806542
  0.8990332846240718  0.3579489136458606  0.8879498376315390
  0.8999470453934878  0.8810679842547803  0.3900527297434424
  0.9129398493549228  0.8741576608628965  0.8740912792923101
  0.1198543175984051  0.4009245632307602  0.3872417672388350
  0.1293735131378704  0.4031228861951875  0.8945473070826381
  0.1318747061322898  0.9026484807511733  0.3926261995441104
  0.1261973427143940  0.9038577692021511  0.8893857339128181
  0.6474571918311225  0.4033229414854656  0.3875086453740359
  0.6405650776065726  0.3858204520341499  0.8959643985544313
  0.6194928862930370  0.8922452498377391  0.3944462548573655
  0.6246961123570656  0.9069355370967241  0.8993145527172471
  0.3588939254873849  0.1477326077367429  0.3855998114121071
  0.3688953847201708  0.1423592567298069  0.8895327455520110
  0.3787097893270204  0.6472701624387193  0.4018625545771397
  0.3856480402861424  0.6452870207533773  0.8816403161944749
  0.8738015616370249  0.1443907440629608  0.3906400046682525
  0.8717250634197993  0.1478985255021638  0.8882157518642081
  0.8729239997852760  0.6411755605484128  0.3932552873391596
  0.8774603237827490  0.6442531250457633  0.8979724143062466
  0.3939569489308116  0.1176983783774181  0.1900888372082586
  0.4168517373791035  0.0967289708828552  0.6472784093735034
  0.4310018981121002  0.6235148396136053  0.0967101094801090
  0.3706953954562704  0.6312048092325805  0.6848138285597770
  0.9101506519323450  0.0997654808634620  0.1556134686299708
  0.8788071539341235  0.1421773850318880  0.6861482688611911
  0.8998614382197637  0.6688465713255091  0.1576715581411373
  0.9109709926503268  0.6184348882652230  0.6756847899835732
  0.1283171951914549  0.4006528239344944  0.1903320801672520
  0.1325247241373159  0.3335693114942728  0.6763901966058805
  0.1296605252019687  0.9101057503022679  0.1802681465632268
  0.1503080903942723  0.8384884647037152  0.6817615325880069
  0.6632847287633601  0.3836864413333108  0.1754359633138043
  0.6424712222417600  0.3331104335420464  0.6579174084068761
  0.6352737844688241  0.8367096118385908  0.1575787706387138
  0.6442556361417382  0.8304545289560824  0.6545076339556033
  0.1100857248407466  0.4474238302582089  0.1396526989835299
  0.1652755447190361  0.3955760592420698  0.6597128520657628
  0.1643565742878793  0.9026031737907655  0.1217688681294825
  0.1556754067631189  0.9068588248841266  0.6804164636908627
  0.6475056055628647  0.4466110223957320  0.1471666394914039
  0.6589628294809807  0.4033243654604568  0.6577023607742651
  0.6572399768613989  0.9063985163454129  0.1476213865304989
  0.6260284426373338  0.8971544447112064  0.6747906199187877
  0.4157101731024485  0.1744978668150238  0.1548261553124679
  0.3771892699897256  0.1367872986289106  0.6871481793439984
  0.4073344817686577  0.5728788956592470  0.1349670280360297
  0.3901297585767759  0.6879126857177598  0.6546206570706548
  0.8958367155639797  0.1695606266162950  0.1448157584728889
  0.9208151085262015  0.1310589870182793  0.6280520952085844
  0.9294686266055052  0.6195187736293352  0.1125767050066318
  0.9020019485824231  0.6803388958249453  0.6431017126245250
  0.1691865295317266  0.4163071730287695  0.1299961991935798
  0.1725569797734207  0.3363994434075361  0.6180743129047490
  0.1521535672061534  0.8418601727579214  0.1585492260182646
  0.1865178636856901  0.8690000768986391  0.6286260164735282
  0.6834922001185253  0.3992299803545715  0.1077675912372681
  0.6730378940721763  0.3562471330227334  0.6031305420637766
  0.6810763528955891  0.8555660178763254  0.1044322433731546
  0.6821111598629195  0.8884078346287360  0.6311350649144486
  0.4403265687417336  0.1128732131497500  0.1408879176822876
  0.4148157084700992  0.1703631862238806  0.6359821118179977
  0.4172923939876924  0.6329054890103684  0.1670033101068171
  0.4264287462573521  0.6243706314124166  0.6400946398698580
  0.9110542974936735  0.1326169074348245  0.0932124868116662
  0.8894443359866187  0.0723147294702064  0.6628933823412413
  0.9005470096412072  0.5968764880322507  0.1759900415481678
  0.9359478175430835  0.6289262460737763  0.6092289676914653
  0.3274973670625494  0.1416512077778260  0.1199816870545222
  0.3219758354179623  0.0899163394790469  0.6222043543014828
  0.3289732203523315  0.6036185364626301  0.0894208782068026
  0.3072116812654173  0.6462797844573557  0.6127553483381101
  0.8134682452353040  0.1180421245533952  0.1569500425604649
  0.8377773385100905  0.1681097218313229  0.6078482765879234
  0.8178146157959085  0.6027259582870093  0.1444959582280093
  0.8224405379927510  0.6191760746697448  0.6403743778999389
  0.0623124137676559  0.3695712421022302  0.1220813020982641
  0.0708689651566039  0.3951304631546050  0.6390160821738138
  0.0657327927296332  0.9158579257462637  0.1145186298098086
  0.0698576365919493  0.8768178582038597  0.6494808915466888
  0.5705930990473698  0.3867860644244728  0.1515540766431305
  0.5628682637034724  0.3760274627679701  0.6401420173536518
  0.5682075773025517  0.8890313058306062  0.1125743900991906
  0.5670704588524031  0.8599985182703277  0.6108903556057538
  0.3560843197111195  0.0859090434776027  0.1005015817988808
  0.3566689931098225  0.1232766390526102  0.5744434584579466
  0.3455214032101800  0.6650151940318919  0.1006930305313451
  0.3402103284305273  0.5892267270655610  0.6036960278212192
  0.8226323667746893  0.0938365642013221  0.0954268212462732
  0.8029162400201636  0.1188709467952909  0.6420967114555240
  0.8474978056355065  0.5907527480612095  0.0853692766821537
  0.8538500683354934  0.5776038886489603  0.6023783150064561
  0.1164466262266451  0.3327212855613340  0.1277612797329393
  0.0802847368395594  0.3465439508970934  0.5922127682351788
  0.0587858136284943  0.8526309115547028  0.1342408260921695
  0.0982852348066226  0.8415443107294643  0.6003973138676805
  0.5983260619442509  0.3389357041599045  0.1165129564384242
  0.5818749987045498  0.3452432135749422  0.5877054584343777
  0.5902230417977069  0.8436042369315523  0.0676158381826715
  0.6174119225217897  0.8522317895148802  0.5667817498849299
  0.3736845293817668  0.1425113835933506  0.0729187891949923
  0.3169323150151311  0.1584446115280392  0.6170860430190476
  0.3213445591918963  0.6285096851970137  0.1504996809968043
  0.3578193979053064  0.6430249084226112  0.5661481135754871
  0.8138449702491566  0.1570450167019053  0.1078181124856246
  0.8382504663468355  0.1058934350511442  0.5841443053728594
  0.8311657088689769  0.6556703768291510  0.1043495471282109
  0.8406512019193455  0.6435568212872397  0.5828928723508831
  0.1087476280426928  0.3753726891602263  0.0774069863202054
  0.1099061580875204  0.4067009671583155  0.5851596894969813
  0.0902287314643624  0.8647450270447796  0.0797739268546336
  0.1021977786876137  0.9070896154245313  0.5996439190346693
  0.5839471566143100  0.3995395242692751  0.0877044541135020
  0.5935043729321822  0.4105973007223983  0.5902879739184760
  0.6103825361073905  0.9073105928560027  0.0650887373495514
  0.6022246363496124  0.9156665492209857  0.5834550128458685
  0.3481028307243842  0.3952876932267040  0.0684748284822906
  0.3462031672269945  0.3744858970028653  0.5739275689219575
  0.4158716432500343  0.8791471693628793  0.0724572182351033
  0.3451097581451414  0.8901903278987949  0.5765041301621283
  0.8510334948700703  0.3633270250737195  0.0681408076242371
  0.8536455382982450  0.4026812223932734  0.5710435149615491
  0.8623573443373697  0.8880273765607331  0.0814689880084648
  0.8766087019335074  0.8894656068681639  0.5695420149345820
  0.1070982106291112  0.1409198558828635  0.0729655038662881
  0.1048346006958292  0.1410350945023270  0.5673403733456146
  0.1786203593244771  0.6280764189839688  0.0723728095259844
  0.1345768610505456  0.6357386269152214  0.5750838440499034
  0.5929563949266905  0.1350019899112576  0.0715092414528280
  0.6344278087454668  0.1353804192248700  0.5608558713276003
  0.6483711684826561  0.6125124799676838  0.0634455155527774
  0.5992527268577550  0.6405002295983675  0.5767729670789308
  0.4076117172709143  0.4141039742469952  0.0952248009519570
  0.4113906079505291  0.3880561790359031  0.5745739045376623
  0.3793734743389056  0.9278502460398161  0.0996300261974656
  0.4096486860872482  0.9072262951153690  0.5760973520594992
  0.9067055219529008  0.3949532778273087  0.0741728112179423
  0.9002209255740139  0.4396983317890168  0.6027621684231803
  0.9117994468517350  0.9138363358802558  0.1203735701461368
  0.9037789922194049  0.9354702975252144  0.6063918881036012
  0.1570607555398482  0.1730621128503721  0.1074900597205899
  0.1631485468959049  0.1627906972784455  0.5992967910439552
  0.1113765631098914  0.6278556564725921  0.0610236524598314
  0.1477820044367688  0.6744684800535721  0.6306293309640139
  0.6554857604628765  0.1577465192328465  0.0858555140348217
  0.6578433011330204  0.1741249833806798  0.6083954650347102
  0.6482153742109249  0.6671369994174303  0.1041620938017855
  0.6569246967613190  0.6696014069445505  0.5935005815199771
  0.3487838514375418  0.4301571560701404  0.1245413082816935
  0.3707701105599732  0.4224406767767864  0.6136214938107438
  0.3497423528522898  0.8808826415431896  0.0637375002462109
  0.3628746477723240  0.9384624411252547  0.6168748694400082
  0.8510998035647155  0.4206356234940792  0.1009588567293584
  0.8389219861871078  0.4350157770220768  0.6248869900749080
  0.8433996477687622  0.9247026536473828  0.1320505304154130
  0.8378152740575858  0.9244658437523979  0.6122038774121418
  0.0924219322567933  0.1783544444366006  0.1246424749017234
  0.1075796059652594  0.1851914325031133  0.6202340916423605
  0.1436659634471671  0.5716972439673740  0.0704402837286221
  0.0864369713268770  0.6772658892565898  0.6031286851721710
  0.6012661337050097  0.1805852531817285  0.1169517269606407
  0.5912571658241029  0.1675504211419873  0.6041504430230762
  0.5941905385607272  0.6477497761937158  0.0723075622632691
  0.6004816339535747  0.6832835215952353  0.6267485144995809
  0.1556058495919616  0.0747398868185077  0.1299783074956511
  0.1324940721910089  0.0694992080109357  0.6191333577817033
  0.1343717555153106  0.6555183417080548  0.1532626296466221
  0.1373771675421019  0.5781798748808569  0.6542781447296659
  0.6475641398823530  0.0674759961336785  0.1231308030150848
  0.6687918006294795  0.0825787244330249  0.6341102373251873
  0.6422893530259806  0.5806377487239472  0.1549128553571185
  0.6433550305479570  0.5710609757781903  0.6222611981722547
  0.3803878382710541  0.3150927742309839  0.1100069317132817
  0.3938092451223940  0.3064520189248403  0.6256014730559412
  0.3952412968690194  0.8653800045641640  0.1695465401610265
  0.3986474943927712  0.8242222487438762  0.6222973022922769
  0.9061195538495147  0.3200358008336459  0.1318879733427985
  0.9166971713714328  0.3404457101848016  0.6151111081966281
  0.8995389815766787  0.8175371805707209  0.1334576417981172
  0.9308086947033327  0.8440527974863122  0.6370613479302284
  0.3311687241512405  0.3398638329894654  0.1513776177857277
  0.3540942943470557  0.3474884606272872  0.6693483267845964
  0.3787698583365106  0.8096330868180349  0.1287929766328386
  0.3507588242944687  0.8535732712501723  0.6668953515002048
  0.8461660532387228  0.3404219402082229  0.1638828711503898
  0.8496035035231305  0.3379594931208924  0.6482522453058677
  0.8306640131560540  0.8322960113082277  0.1491200115897821
  0.8591598507396474  0.8291033354752055  0.6444816907515740
  0.0916169869052485  0.0866318389322375  0.1557160330004292
  0.0804095538327301  0.0999000846115400  0.6512199986331838
  0.1569513430951019  0.5902417021043538  0.1620972189935951
  0.0667736247134659  0.5839019993393066  0.6267428610441488
  0.5920973439955450  0.0950004586357935  0.1623101364962867
  0.6036346772095641  0.0715893375797047  0.6297510485523676
  0.5837840256121337  0.5623316288010080  0.1157031182853036
  0.5970802079184122  0.6003200740506982  0.6715533047583510
  0.1468324070465498  0.1191434405838885  0.1824483102896570
  0.1462932192689632  0.1094991242567659  0.6782310356141236
  0.0846760823616590  0.6050979736098191  0.1503661513954100
  0.0867994799929132  0.6218170794329542  0.6825369846321062
  0.6545276734644280  0.1222540413417931  0.1713240409578178
  0.6233299466037221  0.1130210825737808  0.6781152076648630
  0.5872714007696855  0.6176402137088635  0.1627842489970706
  0.6615146778635550  0.6199059550882494  0.6698579228816748
  0.3950707611446022  0.3516542778299966  0.1676899646430882
  0.4205587985552308  0.3594922650095085  0.6642692623510353
  0.3270067055621915  0.8544170890712889  0.1488878885100804
  0.4170668051812329  0.8741549442288578  0.6671582722247399
  0.9053250584010265  0.3783275286216806  0.1689943673397760
  0.9058191664248393  0.3761462560903048  0.6754915653491215
  0.8820287802649467  0.8553130102909734  0.1929145815044421
  0.8880640403441554  0.8771368624975081  0.6874985872175143
  0.3474596538759556  0.3418532687450750  0.3361380083140563
  0.3533160666089025  0.3606878596217497  0.8292233839619539
  0.3197754532751759  0.8509620186870520  0.3658628631840398
  0.3354338574957817  0.8414366074768314  0.8456247061878504
  0.8568106151002136  0.3583995961757324  0.3268562783652419
  0.8295185395152216  0.3583461967455839  0.8383575526911993
  0.8500646187679514  0.8376302921473618  0.3381655317055930
  0.8502000814203808  0.8376904483181122  0.8314864268837245
  0.0865412627715211  0.0846348929799705  0.3550077496624752
  0.0678206361493072  0.1257999048215401  0.8844107000732804
  0.1188470795130750  0.6070100062808934  0.3140018456740749
  0.0610041073195611  0.5991946879627321  0.8936405091529092
  0.5867771703394018  0.0929553570603427  0.3425461064650517
  0.5858072449578570  0.1043003479327210  0.8312314039815698
  0.5998607012428750  0.5907453014287687  0.3401698106310675
  0.6093782078413242  0.5987474552074761  0.8235913731287172
  0.3612730959779589  0.4049907428167540  0.3228960795778761
  0.3379219755061789  0.4171270528449807  0.8616874927764103
  0.3515245600755748  0.8827412834510844  0.3166750802152875
  0.3499985356532054  0.9043900583990917  0.8350221268311848
  0.8308287370548325  0.4065824471693811  0.3639771327518940
  0.8576255570259778  0.4178298413565365  0.8482527067990741
  0.8506275642102391  0.9040536173146285  0.3324331228515063
  0.8418080561941715  0.9040194735427821  0.8343532300715824
  0.0980070319111307  0.1459442093793230  0.3344119975512491
  0.0975966638888534  0.0903315077754362  0.8390247822479943
  0.0855249775106466  0.6593534803237062  0.3375068222094974
  0.0906842293553439  0.5829125882658674  0.8340747291698911
  0.5891624851172461  0.1582383702103621  0.3401425925500594
  0.6032732080463605  0.1690057629141321  0.8443751073399828
  0.5866744449994465  0.6555239697777152  0.3359708124088361
  0.6010473998642899  0.6639641758002169  0.8223477787707992
  0.3223688961898153  0.3895828251790158  0.3704246119403398
  0.3302713669697865  0.3609214815291958  0.8920818205572265
  0.3239207842816355  0.9176481765859246  0.3625406933244095
  0.3147452228243658  0.8871349982782825  0.8846389676346821
  0.8347605125151121  0.3431421658444717  0.3841411466854426
  0.8238279840024378  0.3843815274941647  0.8985852722687978
  0.8158627296483942  0.8786130830555191  0.3813740023590854
  0.8306468881533824  0.8653319153135176  0.8896218417312802
  0.0685813856658938  0.1371283462199206  0.3931125108800633
  0.1000471003148594  0.1549596980954257  0.8354170139752040
  0.0713500902490329  0.5992142392176106  0.3561271045302098
  0.0784282926460403  0.6458207022659707  0.8511914930735641
  0.5665444686372766  0.1287967105785418  0.3948825499271752
  0.5628267210048146  0.1320995015995204  0.8842543882085141
  0.5650793538738769  0.6194575015820257  0.3892073855678888
  0.5739194863969267  0.6266375342614667  0.8687456932990155
  0.1818709147427996  0.1124595834313346  0.3696041893405829
  0.1477499499461091  0.0931641942650848  0.9265278956998639
  0.1748212678400902  0.6610081698690146  0.3775259779162611
  0.1510703497889077  0.5773082441862907  0.9142026668319180
  0.6776287226593646  0.1135991364513800  0.3539262113887389
  0.6755549705157483  0.1012636681808284  0.8617637029467317
  0.6783332974138411  0.6474596150390458  0.3617325074126272
  0.6906187909748350  0.6650398767854773  0.8550261899838448
  0.4386136301658120  0.3630592079717454  0.3645044713623173
  0.4237194059588568  0.4252875729036685  0.8769566047772659
  0.4195384676735844  0.8472186702532848  0.3739043811361070
  0.4267158998986245  0.8601489188724043  0.8707028854754585
  0.9209641148457397  0.4198031345431014  0.3760038502909586
  0.9268385086461435  0.3517005090691945  0.8555429678788424
  0.9351507205344031  0.8802999709657595  0.3641730413504221
  0.9350633774653933  0.8893008603457295  0.8416409453395752
  0.1536305423920167  0.1000457998732166  0.4298549142157427
  0.1513119826442439  0.1665307032867099  0.9175357072154918
  0.1621173217515158  0.5955237016822454  0.4012029117591751
  0.1425214044792013  0.6456151837640383  0.9225406239752790
  0.6486840074194405  0.0829073376441333  0.4057909078826452
  0.6289443274033862  0.0687770346817544  0.9090621337338464
  0.6629958489044419  0.6008638072624224  0.4169756345239792
  0.6794310590490306  0.5989387394846223  0.8835842913752761
  0.3926900079394189  0.3417272153006382  0.4159759093171407
  0.4322656504271011  0.3524312479272854  0.8671529308796030
  0.3856751007759885  0.8778823553905116  0.4300732171628205
  0.3901107577636128  0.8401768274381325  0.9275330798222620
  0.9345442811170876  0.3464126227240596  0.3812280201926997
  0.8893061377351191  0.3207674676686728  0.9047840561587539
  0.9022549050746794  0.8490149686053686  0.4220279185087606
  0.9254612223649979  0.8347855561171034  0.8795362711657029
  0.4059286835827793  0.4101236033448021  0.4087617631318852
  0.4061497515708787  0.3783362958514785  0.9282520223547597
  0.4187080666788830  0.9188288599327633  0.3777203245179730
  0.4053082461586418  0.9081367603491111  0.9136550319863320
  0.8990281078152493  0.3824036752793067  0.4329419898788820
  0.9149117415809166  0.3856203761624039  0.9172185050352892
  0.8971568138364785  0.9222219078390684  0.4093520234700264
  0.9157430831307430  0.9011703022065286  0.9067448908454789
  0.1633118982447021  0.1655284553297758  0.4069802471500445
  0.1814161347202361  0.1179224964523091  0.8728917945926605
  0.1247252603115402  0.6486209682574854  0.4244383957957492
  0.1757889935270730  0.6273648110609118  0.8659326684741027
  0.6584020729060258  0.1534997146543352  0.4089032048132591
  0.6523087211157363  0.1376015539750555  0.9188669632561819
  0.6397219233667545  0.6684311920201922  0.4151040004292076
  0.6516411523946356  0.6553419672213437  0.9155035527333606
  0.3590552612027549  0.0695871097561582  0.3666906380279540
  0.4067033955029639  0.0871958218522147  0.8424058985944548
  0.3997655399821102  0.5932000457468591  0.3431839122598899
  0.4097727020314947  0.5662468419452998  0.8612515467916425
  0.9048804819587571  0.0976584012252728  0.3266117179011124
  0.9120425585357409  0.0832786867553713  0.8542422601067551
  0.8778440905530616  0.5720230193120642  0.3471952194044334
  0.9070185988402427  0.5947453482668064  0.8355976212834794
  0.1539558391610210  0.3375495482216583  0.3454796791621643
  0.1639356092794211  0.3462228493335132  0.8462173215217034
  0.1537328825930150  0.8401950508066067  0.3469412792716697
  0.1611904817029945  0.8291040790106827  0.8628042610319084
  0.6577601729687120  0.3287706618937530  0.3519606391133627
  0.6619651054129716  0.3357564815060720  0.8352564750015348
  0.5808668419342699  0.8226948106029669  0.3583574414324315
  0.6129406175875990  0.8296248581754404  0.8693199213169377
  0.4128748779572283  0.1037346943627891  0.3397664639859109
  0.3558897781567007  0.1193679164846591  0.8104529317293403
  0.3383585787595492  0.6166033745397829  0.3354137123542131
  0.3676706704270369  0.5929892524309921  0.8191323819161688
  0.8405416600864249  0.1035874639204458  0.3264136386915937
  0.8713029035337364  0.1109490796418091  0.8119454103880923
  0.9222743408043308  0.6198115261381387  0.3271522904092174
  0.8477613609124963  0.6246227201599719  0.8217458499375981
  0.1045157060895571  0.3701917358982922  0.3133705789606409
  0.0991122684765341  0.3661369752497210  0.8254429820087810
  0.0911135037968950  0.8634209125645529  0.3345871779344115
  0.1238208001070190  0.8596863204930744  0.8151089305682545
  0.6073650222111949  0.3643969888982141  0.3243898486426760
  0.6227866355569569  0.3881701062420603  0.8161515852267612
  0.6487979836612814  0.8132491212380693  0.3688750112746791
  0.6564599830106688  0.8662179811090273  0.8331632289038582
  0.3519149223999138  0.1128791472747245  0.3155324306959257
  0.3429757004171221  0.0718984232599058  0.8562967059597106
  0.3457992197464950  0.5707633664487418  0.3807967538886802
  0.3394117708105807  0.5680540352267150  0.8754543912195529
  0.8656835193355793  0.0642226501973941  0.3695537663418028
  0.8474073523322496  0.0732324500821692  0.8595121310464975
  0.8553511597041585  0.6243840768963010  0.3140085692132981
  0.8497308869359300  0.5719917101339307  0.8607642957279692
  0.0895745186181982  0.3260464521375015  0.3615033894956550
  0.1062685922224441  0.3252437706724126  0.8790612839285912
  0.1040562876673794  0.8263007756788192  0.3910899043503608
  0.0945038915715278  0.8306181533159415  0.8654969117330135
  0.5976305831374197  0.3331110816565798  0.3821971913383190
  0.5952919804124953  0.3339166667744199  0.8477937191282375
  0.6273934339023958  0.8523551198162495  0.3216639385582585
  0.5902626056996642  0.8734204127066756  0.8275231493309436
  0.1473204001963238  0.4313111147555559  0.3726889181057811
  0.1457977609056924  0.4344054926079400  0.8727564262663642
  0.1489396900725322  0.9326988844511275  0.3644117082118912
  0.1616558258583806  0.9255943372245810  0.8794212762949486
  0.6721091719217485  0.4266941702618106  0.3604925729214615
  0.6783777210420664  0.4106517082140875  0.8937162004715822
  0.5899323163394701  0.8880470262013601  0.4259169593840791
  0.6559330933054380  0.8975626073789810  0.9257753873605227
  0.3878370297406223  0.1467789981589405  0.4178826490396555
  0.3949121719198387  0.1775200839367514  0.8791086588308604
  0.3928099112806864  0.6827774470787691  0.3800724195136891
  0.4175756959013810  0.6658261929387500  0.8606689229015151
  0.8727168436340851  0.1813924053548070  0.3692422665876494
  0.9050738677984901  0.1765415178716386  0.8737688833003038
  0.9020181766583826  0.6255515569420791  0.4236941911914125
  0.8973527569372464  0.6828388047791111  0.8830620222386721
  0.1344762248239983  0.3843000959380343  0.4242288882722630
  0.1551435550503636  0.3952767661323592  0.9286457359600220
  0.1629188244932545  0.8915990902726774  0.4185199125261091
  0.1252575519650018  0.8963781747302689  0.9320976206540975
  0.6730420473962283  0.3894672986384617  0.4221222166012175
  0.6407704151351219  0.3546800168537627  0.9289169076101362
  0.6122751790220681  0.9289022515556821  0.3689414112355854
  0.5878402120524513  0.9026792379098439  0.9215282529764531
  0.3177206283522244  0.1389281826784628  0.3999155363108640
  0.3835469778418593  0.1272142295814284  0.9292113417038859
  0.4112071017643416  0.6297457277903167  0.4241774964825304
  0.3924775657281721  0.6411816772225718  0.9254737745907218
  0.9106378468565290  0.1435859361652065  0.4137311339365883
  0.8747976447653085  0.1312952731971400  0.9279279066831210
  0.8294883494517594  0.6364889806324159  0.4047427957738461
  0.9023354600617324  0.6244505915321716  0.9256858130683181
  0.3599572076336683  0.1859090709945951  0.3661219437451996
  0.3288880985495783  0.1572711127304311  0.8942647026923216
  0.3420967944508491  0.6554513900466559  0.4286957373425176
  0.3496785214258432  0.6676029523055550  0.8775836633121994
  0.8394369026937604  0.1419435907195359  0.4171575499033727
  0.8289852588917754  0.1630504910815158  0.8839264908231139
  0.8793557719861278  0.6823246740010876  0.3858649080009799
  0.8372603106498629  0.6529999594265320  0.9141509456294352
  0.0781049349259860  0.4169102192137928  0.3945794851505198
  0.0899168555445258  0.4146061263529213  0.9071577257477583
  0.0951430625836091  0.9169158103811018  0.4156310515476787
  0.0944384097940771  0.9288225384112125  0.8767983684014744
  0.6156085047839294  0.4264513011709882  0.3994361176161358
  0.6069551205348842  0.4150356852521425  0.9052554745189150
  0.6575025581010830  0.8927002476669900  0.4123793715459640
  0.6289087540996671  0.9496933465607139  0.8826926445608031
  0.9807721429362045  0.9795624999844494  0.1290883394093071
  0.9888818431997326  0.9997671115260923  0.6259656336394384
  0.9783142501530065  0.4863954149158122  0.1279895682951527
  0.9968277905980697  0.4783386744989095  0.6211834743190573
  0.4841135502745943  0.9849963821539096  0.1213602815052751
  0.4963801798613248  0.9813530872918825  0.6260136706721425
  0.4924420846885326  0.4747038650501677  0.1170481685377164
  0.4872696901163315  0.4913541682986035  0.6188474696233777
  0.2303365729943179  0.2357366550835560  0.1281363868566074
  0.2398540089661619  0.2280498607623903  0.6247956686036114
  0.2335879146853224  0.7392367767721281  0.1272933796257832
  0.2371636573980911  0.7357455471014206  0.6242250223178528
  0.7462478763710473  0.2250319989432707  0.1201548340700772
  0.7403753678267757  0.2305212281751467  0.6227828071485835
  0.7394640911793789  0.7179901824667565  0.1229114759413948
  0.7405174056854865  0.7300897423636036  0.6229069525424065
  0.9921627828920405  0.0074228955880542  0.3772783469244393
  0.9889576915530008  0.0116576150627656  0.8608880703905756
  0.9964888112361369  0.5166502032329591  0.3727991477972666
  0.9810532360031161  0.5132418689955195  0.8732453758016354
  0.4917326202741930  0.0158247234853742  0.3767551921345500
  0.4917116223214280  0.0220344735127725  0.8728508416300383
  0.4776319627232471  0.5133375461651524  0.3696493441155730
  0.4991974078975038  0.5135406545048367  0.8764130441803742
  0.2414898423187836  0.2685881772104970  0.3640992072801348
  0.2412708170810340  0.2637149916787397  0.8721723226829440
  0.2442815328184335  0.7746412414848479  0.3776886824568076
  0.2453480075275797  0.7660900177600816  0.8731472417274840
  0.7314729260760030  0.2548617671848167  0.3755212771549385
  0.7400665689438864  0.2685071472788491  0.8747828115654424
  0.7433636577599336  0.7689758238178042  0.3689126534841193
  0.7513047786836383  0.7643715878890043  0.8727525301993490
  0.2750736294185129  0.0069702813684165  0.3780814533449274
  0.2634050156190061  0.0067428819838726  0.8709571017982041
  0.2636574825384972  0.5049998485955761  0.3741869978581441
  0.2664655233913490  0.5061345830951638  0.8656287273733561
  0.7574372739442033  0.0048504894343189  0.3637774857588805
  0.7669949640412820  0.0087263337102598  0.8644832534063435