MAPbI3 tetragonal T=300 K               
1.0
       25.0541992188         0.0000000000         0.0000000000
        0.0000000000        25.0542068481         0.0000000000
        0.0000000000         0.0000000000        25.3479995728
    C    H    I    N   Pb
   64  384  192   64   64
Direct
0.12588559  0.11821395  0.12808860
0.12592181  0.11821918  0.62781565
0.12633919  0.61808231  0.12776343
0.12581314  0.61860234  0.62855091
0.62573782  0.11850892  0.12859386
0.62590036  0.11861041  0.62769229
0.62623322  0.61826858  0.12853274
0.62641754  0.61867760  0.62838277
0.37545857  0.36836093  0.12823948
0.37554441  0.36868909  0.62823145
0.37582677  0.86831429  0.12806109
0.37600036  0.86869397  0.62828999
0.87617098  0.36844505  0.12808497
0.87608759  0.36821859  0.62833324
0.87572854  0.86792075  0.12812309
0.87551175  0.86833712  0.62806402
0.13259291  0.37749999  0.12853158
0.13259547  0.37725824  0.62818746
0.13198277  0.87745224  0.12839028
0.13214652  0.87687946  0.62832899
0.63182057  0.37700978  0.12821630
0.63240860  0.37683940  0.62762280
0.63237777  0.87742236  0.12797968
0.63231399  0.87729881  0.62841969
0.38176565  0.12751144  0.12779919
0.38199981  0.12694851  0.62836612
0.38168691  0.62678202  0.12806918
0.38172039  0.62680072  0.62792110
0.88215302  0.12775670  0.12827888
0.88233634  0.12687308  0.62828076
0.88256360  0.62753347  0.12797251
0.88203834  0.62723735  0.62794526
0.13164200  0.12272456  0.37765713
0.13260483  0.12301014  0.87789816
0.13209642  0.62304021  0.37830664
0.13178657  0.62308842  0.87853551
0.63185093  0.12272063  0.37837113
0.63222851  0.12312684  0.87833266
0.63242749  0.62334460  0.37783963
0.63162244  0.62330645  0.87820498
0.38244746  0.37316410  0.37850288
0.38255084  0.37308613  0.87843743
0.38220703  0.87254963  0.37811135
0.38216681  0.87276001  0.87765823
0.88237786  0.37319113  0.37797381
0.88260544  0.37285555  0.87837314
0.88248618  0.87306634  0.37790726
0.88231357  0.87239679  0.87840395
0.12585989  0.38183718  0.37861815
0.12578366  0.38170852  0.87770615
0.12636809  0.88194903  0.37863119
0.12571114  0.88147097  0.87777627
0.62592985  0.38158348  0.37773061
0.62568999  0.38187879  0.87805876
0.62608969  0.88189348  0.37769356
0.62641542  0.88183664  0.87844817
0.37583961  0.13223987  0.37798338
0.37563291  0.13144998  0.87772771
0.37636377  0.63214371  0.37847469
0.37561980  0.63176222  0.87795686
0.87599100  0.13148199  0.37781997
0.87592824  0.13226308  0.87864377
0.87552413  0.63224134  0.37815371
0.87584221  0.63187531  0.87824652
0.40433383  0.09158833  0.11543590
0.40470851  0.09193899  0.61495006
0.40451626  0.59140516  0.11510596
0.40397926  0.59203339  0.61497229
0.90451928  0.09147576  0.11525301
0.90445160  0.09210253  0.61525520
0.90426370  0.59189823  0.11531046
0.90406405  0.59167250  0.61505925
0.15443230  0.34157148  0.11482056
0.15420729  0.34149802  0.61545772
0.15462153  0.84210453  0.11481097
0.15425439  0.84173144  0.61500981
0.65459804  0.34215296  0.11571376
0.65410914  0.34134693  0.61523270
0.65435036  0.84231569  0.11482750
0.65436822  0.84197802  0.61573271
0.12711522  0.37721279  0.17127357
0.12727856  0.37763560  0.67092182
0.12723303  0.87774180  0.17054966
0.12708283  0.87713928  0.67136531
0.62731287  0.37696756  0.17060602
0.62669600  0.37709058  0.67111355
0.62725012  0.87700485  0.17116870
0.62719045  0.87702275  0.67099907
0.37753186  0.12761618  0.17119420
0.37734340  0.12727636  0.67082833
0.37706401  0.62746119  0.17073959
0.37680702  0.62759604  0.67100328
0.87761426  0.12693451  0.17111280
0.87737185  0.12678643  0.67047016
0.87763348  0.62752129  0.17049335
0.87717657  0.62755473  0.67099641
0.15352944  0.41302013  0.11506737
0.15332950  0.41357852  0.61501113
0.15315990  0.91386560  0.11535634
0.15347597  0.91318693  0.61554020
0.65291230  0.41310551  0.11548107
0.65259683  0.41368228  0.61496634
0.65332323  0.91305409  0.11525404
0.65334659  0.91336523  0.61515076
0.40342947  0.16310947  0.11572586
0.40285122  0.16320111  0.61521092
0.40317343  0.66299203  0.11483213
0.40284646  0.66357695  0.61570360
0.90322077  0.16339777  0.11532424
0.90261958  0.16337361  0.61520118
0.90269065  0.66360599  0.11512613
0.90339094  0.66325279  0.61513123
0.30665737  0.09317552  0.11347730
0.30692218  0.09244964  0.61388649
0.30699719  0.59273863  0.11305370
0.30629786  0.59275514  0.61379928
0.80694986  0.09235466  0.11290903
0.80643062  0.09291966  0.61296005
0.80690938  0.59266345  0.11386951
0.80659486  0.59248883  0.61369712
0.05630400  0.34244731  0.11386251
0.05680346  0.34236325  0.61317406
0.05641085  0.84294041  0.11324300
0.05713650  0.84294335  0.61341355
0.55656775  0.34306224  0.11382080
0.55672036  0.34301202  0.61327740
0.55662395  0.84272688  0.11323184
0.55625245  0.84312559  0.61388963
0.33137114  0.12681167  0.06247545
0.33094287  0.12682560  0.56237012
0.33122483  0.62691474  0.06191478
0.33152689  0.62743030  0.56258726
0.83181256  0.12690841  0.06191815
0.83183683  0.12711822  0.56207430
0.83164185  0.62743211  0.06219756
0.83094341  0.62765575  0.56232319
0.08091250  0.37710448  0.06253170
0.08171376  0.37675674  0.56247936
0.08147904  0.87718909  0.06237505
0.08147676  0.87689530  0.56197579
0.58120564  0.37747788  0.06240305
0.58153831  0.37769767  0.56232606
0.58184964  0.87733373  0.06269378
0.58170162  0.87686466  0.56207244
0.30576259  0.15995213  0.11427766
0.30585644  0.15946933  0.61361678
0.30623029  0.65961309  0.11397225
0.30626984  0.66014845  0.61433877
0.80556689  0.16014353  0.11406698
0.80583518  0.16029607  0.61384034
0.80612064  0.65944198  0.11386306
0.80567219  0.65945956  0.61388176
0.05603593  0.40972327  0.11369473
0.05552575  0.41007421  0.61437290
0.05559096  0.91002595  0.11349344
0.05624763  0.90962654  0.61424196
0.55570688  0.40959264  0.11387746
0.55594313  0.40934409  0.61355301
0.55548275  0.90963225  0.11437861
0.55637077  0.90981044  0.61434680
0.37247431  0.41861671  0.06177105
0.37256746  0.41847692  0.56243080
0.37231630  0.91830118  0.06166693
0.37232951  0.91837898  0.56228463
0.87273460  0.41865042  0.06241571
0.87292607  0.41872588  0.56177299
0.87301796  0.91863256  0.06200044
0.87206818  0.91841688  0.56188111
0.12224552  0.16828860  0.06231178
0.12269824  0.16865469  0.56216042
0.12274145  0.66824075  0.06199087
0.12295013  0.66817359  0.56246011
0.62270574  0.16839405  0.06197694
0.62233098  0.16804706  0.56227688
0.62251046  0.66865732  0.06226823
0.62205477  0.66826779  0.56189392
0.40837482  0.44465530  0.11202991
0.40816271  0.44376906  0.61177086
0.40849657  0.94413361  0.11191244
0.40859827  0.94471716  0.61158103
0.90864448  0.44429389  0.11134365
0.90813562  0.44459798  0.61165691
0.90799110  0.94449298  0.11214263
0.90794762  0.94376619  0.61121962
0.15822934  0.19402261  0.11130480
0.15807800  0.19385002  0.61140260
0.15849545  0.69417324  0.11162671
0.15860676  0.69423238  0.61161535
0.65778119  0.19457111  0.11123675
0.65799200  0.19449842  0.61181556
0.65830179  0.69374945  0.11146166
0.65868946  0.69408097  0.61200449
0.34095489  0.44355485  0.11399652
0.34066927  0.44415774  0.61419400
0.34083393  0.94364691  0.11440008
0.34126199  0.94366388  0.61483416
0.84079332  0.44325981  0.11399481
0.84128572  0.44383570  0.61483226
0.84158878  0.94357985  0.11431229
0.84136789  0.94340385  0.61420636
0.09149788  0.19343033  0.11478609
0.09102572  0.19329371  0.61426892
0.09103200  0.69356950  0.11496580
0.09105628  0.69335836  0.61434562
0.59097473  0.19384013  0.11445043
0.59085489  0.19332931  0.61429145
0.59096544  0.69407282  0.11463162
0.59076619  0.69384307  0.61491933
0.16152325  0.09684580  0.11339333
0.16088275  0.09710624  0.61369588
0.16074729  0.59683660  0.11341519
0.16124982  0.59639551  0.61384159
0.66134336  0.09698914  0.11388234
0.66139906  0.09668613  0.61409256
0.66116164  0.59674362  0.11333732
0.66067425  0.59708382  0.61376381
0.41116911  0.34664952  0.11384274
0.41129068  0.34675836  0.61331413
0.41089541  0.84707810  0.11378655
0.41114435  0.84676652  0.61397357
0.91060836  0.34621543  0.11413681
0.91070262  0.34690876  0.61319760
0.91148708  0.84683031  0.11348668
0.91056575  0.84633176  0.61403040
0.33922365  0.34628179  0.11739544
0.33940667  0.34674232  0.61703811
0.33960352  0.84631839  0.11714715
0.33917221  0.84618946  0.61774887
0.83913041  0.34649091  0.11707687
0.83990927  0.34601546  0.61780683
0.83996523  0.84613146  0.11719644
0.83999371  0.84655315  0.61761072
0.08946449  0.09601643  0.11705082
0.08909237  0.09621747  0.61769272
0.08915319  0.59667235  0.11792616
0.08929276  0.59625684  0.61703357
0.58996811  0.09663537  0.11719147
0.58928215  0.09615779  0.61719329
0.58921629  0.59598822  0.11772437
0.58983878  0.59636199  0.61710380
0.12777739  0.12320598  0.17108469
0.12861531  0.12374327  0.67129445
0.12788907  0.62350897  0.17140309
0.12789767  0.62388485  0.67048663
0.62856879  0.12352803  0.17114231
0.62816952  0.12311959  0.67132130
0.62783219  0.62334382  0.17087233
0.62857695  0.62301970  0.67051397
0.37809800  0.37297600  0.17121650
0.37854921  0.37390955  0.67090799
0.37853949  0.87343932  0.17115672
0.37824214  0.87355516  0.67068554
0.87771758  0.37339165  0.17130358
0.87862438  0.37344795  0.67063859
0.87783698  0.87384483  0.17082580
0.87810516  0.87334795  0.67055219
0.30589770  0.34021828  0.36387716
0.30553863  0.34046263  0.86437915
0.30542571  0.84019468  0.36383412
0.30541574  0.84037285  0.86425749
0.80590840  0.33987081  0.36418436
0.80630066  0.33988864  0.86446377
0.80609804  0.84003392  0.36454606
0.80624157  0.84055092  0.86468841
0.05631367  0.09013096  0.36458124
0.05542999  0.09038947  0.86458509
0.05562923  0.59030534  0.36393384
0.05550113  0.59007823  0.86412540
0.55540535  0.09068354  0.36425102
0.55593037  0.09060040  0.86379610
0.55557415  0.59021055  0.36436395
0.55534124  0.59054605  0.86400070
0.33147516  0.37195407  0.31242004
0.33120608  0.37265505  0.81208065
0.33114013  0.87202280  0.31185489
0.33094872  0.87211601  0.81212933
0.83121532  0.37268538  0.31184338
0.83105006  0.37240842  0.81222706
0.83102832  0.87220549  0.31246892
0.83161158  0.87220940  0.81226426
0.08094071  0.12248778  0.31214225
0.08130341  0.12198050  0.81270726
0.08099623  0.62199448  0.31254179
0.08152511  0.62185071  0.81193237
0.58190200  0.12196725  0.31233994
0.58146141  0.12228489  0.81200233
0.58109100  0.62240394  0.31224380
0.58135350  0.62259214  0.81198970
0.30646704  0.40766055  0.36356307
0.30627091  0.40698949  0.86338303
0.30636736  0.90746479  0.36319332
0.30670641  0.90768320  0.86304412
0.80664229  0.40756676  0.36271408
0.80648418  0.40718951  0.86276089
0.80644802  0.90706416  0.36348844
0.80713063  0.90766511  0.86293907
0.05626327  0.15703252  0.36343998
0.05661571  0.15706830  0.86288037
0.05640225  0.65713996  0.36349635
0.05669400  0.65737194  0.86262398
0.55712747  0.15721808  0.36324923
0.55687392  0.15749156  0.86359404
0.55682043  0.65765027  0.36280132
0.55676779  0.65762218  0.86331882
0.15334731  0.08627730  0.36567075
0.15266625  0.08615067  0.86609988
0.15344233  0.58616831  0.36622093
0.15345039  0.58680095  0.86561472
0.65261689  0.08667786  0.36538281
0.65263163  0.08686014  0.86543004
0.65323173  0.58658315  0.36534929
0.65315282  0.58687010  0.86564246
0.40338679  0.33657057  0.36540355
0.40259965  0.33618036  0.86583315
0.40273385  0.83637112  0.36581016
0.40307515  0.83639458  0.86544060
0.90258633  0.33652587  0.36624779
0.90342234  0.33609987  0.86575039
0.90251805  0.83681699  0.36577796
0.90284729  0.83612346  0.86548672
0.12671770  0.12353402  0.42094624
0.12735234  0.12323840  0.92129319
0.12722606  0.62385456  0.42103036
0.12659470  0.62324980  0.92087012
0.62719406  0.12378303  0.42130701
0.62665473  0.12308884  0.92133145
0.62678744  0.62346393  0.42138835
0.62696998  0.62363115  0.92061866
0.37694393  0.37364573  0.42135562
0.37669274  0.37311480  0.92101631
0.37709994  0.87349229  0.42120088
0.37663484  0.87316344  0.92134002
0.87718107  0.37315807  0.42054378
0.87728149  0.37367786  0.92104886
0.87735926  0.87346045  0.42057017
0.87682078  0.87380342  0.92131971
0.40407570  0.40829725  0.36485287
0.40429596  0.40849242  0.86488857
0.40390433  0.90775943  0.36536146
0.40407535  0.90838538  0.86484825
0.90449718  0.40841282  0.36496848
0.90467400  0.40830152  0.86475811
0.90479009  0.90806933  0.36478771
0.90473198  0.90845203  0.86460527
0.15405029  0.15849618  0.36535742
0.15455881  0.15840428  0.86541724
0.15444813  0.65816186  0.36519351
0.15425600  0.65837415  0.86454273
0.65475377  0.15842720  0.36497758
0.65391237  0.15819522  0.86538678
0.65465930  0.65780447  0.36540536
0.65386846  0.65808798  0.86530493
0.40787862  0.05573475  0.36171389
0.40843887  0.05618426  0.86173005
0.40773469  0.55584282  0.36133207
0.40858988  0.55620268  0.86207552
0.90812351  0.05585956  0.36208911
0.90820355  0.05542441  0.86183915
0.90786656  0.55591709  0.36209566
0.90826924  0.55568496  0.86154306
0.15775396  0.30622734  0.36165074
0.15860711  0.30557280  0.86191723
0.15843220  0.80535905  0.36164520
0.15826954  0.80596825  0.86193665
0.65786167  0.30615795  0.36119566
0.65816259  0.30565717  0.86183174
0.65851016  0.80620124  0.36153506
0.65866966  0.80608718  0.86145436
0.37268573  0.08203216  0.31168036
0.37230339  0.08181405  0.81234435
0.37294255  0.58193016  0.31247096
0.37212785  0.58161218  0.81180571
0.87275068  0.08152013  0.31153216
0.87262779  0.08182207  0.81203736
0.87205100  0.58177405  0.31199962
0.87282000  0.58201712  0.81215527
0.12230466  0.33162489  0.31218008
0.12277788  0.33209764  0.81235527
0.12263142  0.83214520  0.31197373
0.12278424  0.83189877  0.81225926
0.62267823  0.33214365  0.31205179
0.62267065  0.33215456  0.81171309
0.62253940  0.83140248  0.31218567
0.62253190  0.83208544  0.81192177
0.34087293  0.05590433  0.36435473
0.34153426  0.05583262  0.86436625
0.34145899  0.55586933  0.36473164
0.34108168  0.55595479  0.86445747
0.84159020  0.05588398  0.36446490
0.84085085  0.05602686  0.86434560
0.84092456  0.55615271  0.36486379
0.84143668  0.55603190  0.86485540
0.09159357  0.30617676  0.36465509
0.09111376  0.30641852  0.86454726
0.09130391  0.80644424  0.36407651
0.09132600  0.80585474  0.86424961
0.59110694  0.30662525  0.36413953
0.59144382  0.30624852  0.86498850
0.59144716  0.80660547  0.36462790
0.59091334  0.80674165  0.86425012
0.16079615  0.40349729  0.36387830
0.16123099  0.40349537  0.86347375
0.16097451  0.90326423  0.36342505
0.16156692  0.90379761  0.86382021
0.66155205  0.40291275  0.36331566
0.66071953  0.40284875  0.86412225
0.66143108  0.90330804  0.36348591
0.66075628  0.90330528  0.86357377
0.41089870  0.15367807  0.36335798
0.41094114  0.15358881  0.86362605
0.41073898  0.65335191  0.36379629
0.41081946  0.65282404  0.86405625
0.91089853  0.15320915  0.36346306
0.91084029  0.15353631  0.86416048
0.91077330  0.65367412  0.36319860
0.91114353  0.65336843  0.86350627
0.12836557  0.37654802  0.42095368
0.12789130  0.37618211  0.92084392
0.12837643  0.87647837  0.42068203
0.12775746  0.87639753  0.92106949
0.62790215  0.37616280  0.42119709
0.62838464  0.37698698  0.92058424
0.62860066  0.87656739  0.42104942
0.62850153  0.87702789  0.92083748
0.37860722  0.12690361  0.42096104
0.37786857  0.12627179  0.92083963
0.37805341  0.62688383  0.42103451
0.37836940  0.62662560  0.92124336
0.87849031  0.12620175  0.42080710
0.87873142  0.12610031  0.92047846
0.87870922  0.62665470  0.42116029
0.87789316  0.62664673  0.92054662
0.33926855  0.15327072  0.36721143
0.34006085  0.15337654  0.86769536
0.33913742  0.65328611  0.36700565
0.33940325  0.65339706  0.86730308
0.83977164  0.15389572  0.36744143
0.83972059  0.15350765  0.86704099
0.83977797  0.65375931  0.36765304
0.83943265  0.65316338  0.86781020
0.08923490  0.40380923  0.36750120
0.08939689  0.40383086  0.86750889
0.08935704  0.90388454  0.36719166
0.08951310  0.90308921  0.86797240
0.59006447  0.40326996  0.36741739
0.58958946  0.40354099  0.86767209
0.59004106  0.90333085  0.36724256
0.58923299  0.90382959  0.86787352
-0.00114746  -0.00088696  0.12260115
-0.00076942  -0.00127746  0.62314577
0.00161345  0.49900887  0.12541402
-0.00055195  0.50120202  0.62532237
0.50221964  0.00061768  0.12515794
0.49980109  -0.00072143  0.62407618
0.50125055  0.50097258  0.12489479
0.49992786  0.49782774  0.62674769
0.25079311  0.24810391  0.12526128
0.25125772  0.25193796  0.62278589
0.25071649  0.74820419  0.12735317
0.24809929  0.75098707  0.62299110
0.74789401  0.25141319  0.12572901
0.74948878  0.25060236  0.62582213
0.75014365  0.75247657  0.12390383
0.74829391  0.75076646  0.62562560
-0.00179680  -0.00007832  0.37681430
0.00243331  0.00113680  0.87670373
-0.00169908  0.49818218  0.37384974
0.00150252  0.50144669  0.87352037
0.50021718  -0.00201692  0.37564206
0.49843572  -0.00223795  0.87575671
0.49994230  0.49979859  0.37549432
0.49889538  0.50055926  0.87669169
0.25046204  0.24794823  0.37576236
0.24879710  0.25192366  0.87633290
0.24824067  0.74925831  0.37363357
0.24818851  0.75224521  0.87394160
0.75098629  0.25233458  0.37691150
0.74950983  0.25192550  0.87451601
0.74752070  0.74988235  0.37598834
0.74881625  0.74771046  0.87391551
0.25121066  0.00055848  0.37373838
0.25202616  -0.00077858  0.87317096
0.25150590  0.50147143  0.37562191
0.24778369  0.49900090  0.87629594
0.74752733  0.00090414  0.37575831
0.74882035  0.00166667  0.87453327
0.74823870  0.49930102  0.37512661
0.75051848  0.49787247  0.87532030
0.00222516  0.25002886  0.37498734
0.00109435  0.25096741  0.87537045
0.00126734  0.75241604  0.37581570
-0.00230713  0.75090365  0.87412395
0.49951593  0.24967423  0.37375948
0.49983636  0.24998881  0.87538668
0.50145783  0.74851070  0.37484941
0.49986812  0.75229076  0.87747016
0.25174533  0.00237529  0.12458918
0.24827353  -0.00177914  0.62608916
0.24996349  0.50007882  0.12727478
0.24795718  0.49754658  0.62646295
0.74890437  -0.00106659  0.12531357
0.74984125  0.00136575  0.62425017
0.74778634  0.50114483  0.12403718
0.75143056  0.50176295  0.62446993
0.00075249  0.24956342  0.12303168
0.00101267  0.25085955  0.62571285
0.00222391  0.75045273  0.12594941
-0.00116570  0.74932753  0.62278560
0.50174431  0.25050138  0.12686102
0.49839453  0.25169055  0.62478716
0.49830166  0.75064087  0.12610983
0.50139650  0.75002531  0.62420164
0.21857248  0.12456375  0.00195753
0.21835200  0.12748523  0.49851512
0.21562138  0.62344303  0.00179610
0.21958164  0.62478557  0.49856659
0.71739668  0.12355099  -0.00009931
0.71758817  0.12668593  0.50149153
0.71849973  0.62719332  0.00157170
0.72022340  0.62284904  0.50222577
0.46621863  0.37397186  0.00065806
0.46720496  0.37595304  0.50006010
0.46901065  0.87667456  -0.00016978
0.46717264  0.87292453  0.50059092
0.96726172  0.37575416  0.00134240
0.96681243  0.37743995  0.49992295
0.96968379  0.87519308  0.00234847
0.96644570  0.87366342  0.50116226
0.27954769  0.37734052  -0.00068554
0.28318588  0.37413089  0.49813957
0.28379824  0.87338968  -0.00116436
0.28075543  0.87641969  0.49848705
0.78276290  0.37437869  -0.00049889
0.77989760  0.37503101  0.49841992
0.78121288  0.87279690  0.00174266
0.78270788  0.87682351  0.50146449
0.03236672  0.12585026  -0.00077818
0.03355568  0.12542701  0.50171075
0.03068305  0.62506294  0.00162955
0.03412689  0.62569849  0.49858329
0.53074578  0.12435962  -0.00169698
0.53405457  0.12365318  0.50052433
0.53432774  0.62370292  0.00065948
0.53286197  0.62675661  0.50006386
0.12487404  0.46582059  0.00211143
0.12541654  0.46902665  0.49875323
0.12312391  0.96677469  0.00209132
0.12439271  0.96793216  0.49907570
0.62309252  0.46620968  0.00217109
0.62385198  0.46887358  0.50039970
0.62372417  0.96584861  -0.00081134
0.62717803  0.96671132  0.50001769
0.37414052  0.21913458  0.00237137
0.37507654  0.21644772  0.49893263
0.37594443  0.71805333  -0.00144515
0.37311633  0.71797837  0.49842183
0.87331962  0.21606163  0.00077296
0.87526797  0.21901883  0.49787182
0.87269673  0.72011426  -0.00242518
0.87614602  0.72021428  0.49876643
0.37554050  0.03315726  0.00180620
0.37385078  0.02991046  0.49799796
0.37480825  0.53398313  0.00200545
0.37634624  0.53095819  0.49944182
0.87511359  0.03018392  -0.00013877
0.87711945  0.03036323  0.50118310
0.87366133  0.53063927  -0.00056753
0.87348632  0.53124832  0.49885685
0.12562862  0.28357794  -0.00207651
0.12370415  0.28192622  0.49893462
0.12288003  0.78272406  0.00099324
0.12651964  0.78385922  0.49964128
0.62483695  0.28008174  -0.00194058
0.62556833  0.28231515  0.49831763
0.62364102  0.78195655  -0.00096544
0.62634369  0.78101528  0.50239586
0.12261913  0.03363540  0.24815695
0.12385935  0.03116001  0.74953743
0.12512668  0.53433913  0.25202769
0.12611687  0.53397647  0.74862932
0.62550551  0.03025717  0.24877763
0.62406513  0.03240592  0.75140898
0.62481592  0.53255547  0.24920410
0.62291636  0.53432643  0.74800251
0.37492309  0.28189989  0.25081159
0.37638898  0.28196710  0.74811094
0.37400420  0.78136898  0.24873409
0.37683937  0.78262225  0.75205926
0.87629764  0.28291219  0.24936259
0.87590227  0.28234559  0.75049998
0.87448562  0.78191006  0.24901540
0.87359988  0.78122179  0.74940263
0.37748525  0.46628222  0.25206974
0.37395720  0.46688167  0.74785118
0.37501068  0.96600359  0.25069421
0.37461299  0.96895534  0.75176838
0.87645090  0.47020834  0.25049529
0.87743935  0.46864561  0.75182777
0.87689360  0.96665923  0.24864470
0.87365179  0.97049880  0.75155870
0.12724770  0.21798172  0.25126036
0.12345430  0.21869813  0.74905077
0.12691679  0.71614581  0.25046725
0.12522226  0.71892796  0.74937839
0.62492555  0.21659066  0.24861310
0.62674871  0.21649354  0.75052279
0.62562212  0.71687693  0.24872820
0.62312938  0.72033844  0.75242146
0.28148339  0.12533011  0.24834753
0.28445788  0.12338032  0.75124274
0.28076155  0.62749936  0.24986221
0.28159735  0.62590799  0.74927285
0.78363194  0.12528376  0.24988209
0.78034325  0.12572423  0.74837500
0.78272106  0.62653879  0.25010239
0.78144867  0.62367436  0.75179214
0.03188881  0.37459751  0.25209250
0.03060031  0.37678757  0.75115086
0.03152999  0.87521072  0.24894830
0.03152190  0.87571057  0.75091818
0.52958032  0.37668265  0.24813739
0.53149811  0.37512990  0.75086119
0.53051889  0.87383994  0.25096177
0.53380836  0.87436618  0.74859458
0.21955929  0.37484857  0.24906920
0.21908137  0.37440774  0.75010373
0.21996308  0.87411929  0.25188661
0.21870932  0.87330893  0.74893489
0.71916092  0.37310693  0.25027291
0.71623950  0.37484258  0.75229499
0.71974745  0.87582485  0.25203712
0.71810015  0.87526212  0.74965697
0.46825750  0.12354737  0.24866721
0.47040850  0.12283314  0.74776097
0.46657930  0.62621218  0.25032485
0.46969163  0.62620019  0.74864013
0.97018970  0.12480763  0.24816202
0.97009767  0.12570285  0.74916954
0.96724402  0.62707435  0.24807683
0.96774731  0.62512035  0.74998016
0.37428470  0.42153542  0.10289043
0.37415085  0.42217660  0.60275063
0.37416702  0.92159849  0.10282113
0.37410705  0.92202408  0.60245984
0.87405297  0.42192427  0.10221356
0.87430277  0.42150370  0.60311416
0.87391442  0.92190903  0.10287337
0.87439921  0.92150651  0.60235473
0.12439555  0.17145526  0.10304315
0.12462574  0.17201628  0.60237708
0.12424292  0.67173960  0.10304268
0.12467226  0.67177388  0.60228858
0.62414412  0.17195999  0.10288052
0.62458517  0.17226387  0.60265729
0.62391727  0.67201405  0.10301900
0.62433730  0.67213729  0.60230625
0.32844897  0.12647571  0.10304810
0.32812985  0.12645980  0.60281112
0.32877579  0.62651656  0.10263803
0.32878994  0.62646706  0.60291784
0.82855281  0.12629240  0.10339305
0.82797604  0.12623795  0.60261525
0.82819588  0.62619719  0.10313147
0.82852040  0.62620670  0.60351057
0.07847357  0.37618751  0.10292573
0.07830943  0.37674242  0.60318011
0.07819719  0.87692148  0.10290043
0.07845473  0.87654584  0.60324900
0.57785529  0.37683723  0.10343731
0.57856110  0.37670917  0.60260909
0.57846753  0.87641998  0.10305177
0.57806374  0.87678942  0.60312293
0.32869249  0.37334890  0.35349542
0.32839024  0.37357435  0.85262060
0.32837330  0.87344858  0.35292417
0.32877313  0.87337536  0.85294863
0.82800124  0.37325688  0.35330181
0.82806350  0.37364762  0.85324643
0.82824015  0.87390170  0.35266100
0.82865330  0.87305142  0.85355028
0.07848740  0.12346061  0.35315004
0.07851569  0.12314082  0.85354993
0.07845708  0.62337395  0.35322941
0.07867989  0.62376871  0.85325955
0.57790332  0.12296109  0.35311773
0.57802142  0.12353713  0.85340869
0.57831089  0.62332633  0.35308015
0.57866897  0.62347572  0.85308278
0.37413366  0.07769411  0.35228352
0.37489084  0.07770113  0.85257968
0.37464068  0.57844882  0.35235069
0.37483894  0.57863097  0.85254475
0.87436529  0.07807796  0.35307539
0.87476661  0.07819669  0.85302431
0.87413255  0.57799734  0.35304287
0.87440450  0.57855307  0.85261669
0.12414846  0.32771630  0.35311811
0.12405246  0.32769247  0.85252684
0.12446590  0.82771424  0.35237625
0.12409291  0.82810722  0.85301670
0.62470981  0.32831458  0.35251311
0.62452692  0.32800018  0.85263502
0.62416143  0.82857697  0.35283612
0.62478493  0.82837074  0.85314653
-0.00114913  -0.00041894  0.25202312
-0.00206245  0.00085769  0.75086700
0.00034319  0.50063508  0.25175685
0.00109209  0.50099101  0.74905233
0.50062691  0.00200222  0.24762988
0.49842471  0.00128120  0.75164722
0.49910051  0.49856777  0.24828108
0.50142447  0.49912409  0.75147126
0.24892766  0.25231674  0.25175910
0.24919693  0.24809821  0.75233619
0.25191657  0.74996362  0.25122267
0.25036680  0.75042823  0.74906694
0.74951658  0.24898654  0.24855793
0.75137340  0.25062690  0.74946153
0.74827284  0.75168771  0.24951395
0.74981823  0.75059276  0.75235698
0.25207546  -0.00059504  0.00131275
0.25007170  -0.00085967  0.50249220
0.24945035  0.50228007  0.00040279
0.25125689  0.49983594  0.50197857
0.74858628  0.00147545  0.00025631
0.75110595  -0.00238475  0.50019217
0.75135188  0.50226438  -0.00189562
0.75104684  0.50187189  0.50161165
0.00010019  0.24888524  -0.00156868
0.00202444  0.24925819  0.50016105
-0.00062417  0.74886557  -0.00072539
0.00024244  0.74884998  0.49775886
0.49975407  0.24834254  -0.00201061
0.49999383  0.24831472  0.50007167
0.50153683  0.75214112  0.00180740
0.50029433  0.74868948  0.49894793
0.24975688  0.00180904  0.24771921
0.24916527  0.00089701  0.74830476
0.25218947  0.49874323  0.24885138
0.25024123  0.50135422  0.74935617
0.75179304  -0.00203328  0.25007415
0.74990681  0.00192814  0.75159040
0.74925585  0.49993865  0.25028421
0.75061942  0.50003254  0.74898518
-0.00062144  0.25210479  0.24937295
-0.00019790  0.25081892  0.74892778
0.00028053  0.74790057  0.25086298
-0.00142480  0.75065885  0.74885853
0.50002736  0.24805050  0.24832924
0.49981953  0.25102665  0.75135041
0.49904017  0.74857684  0.25008861
0.50138854  0.75017214  0.74776784
-0.00200036  0.00243125  -0.00245742
-0.00177883  -0.00116526  0.50145050
-0.00092309  0.49896240  0.00017660
0.00190886  0.49985648  0.50242982
0.49968172  -0.00010121  -0.00089015
0.50139924  0.00102439  0.50052698
0.50202447  0.49873623  -0.00232974
0.50021978  0.50044182  0.50212562
0.24833449  0.24841685  -0.00045134
0.25191629  0.25038777  0.49798919
0.24919915  0.74864243  -0.00054131
0.25101056  0.74852439  0.50045839
0.74853368  0.25015167  -0.00237993
0.74906052  0.25233351  0.50090715
0.74862162  0.75202193  -0.00187347
0.74858603  0.75140789  0.50143177
