MAPbI3 tetragonal T=300 K               
   1.00000000000000     
    25.0541992188000009    0.0000000000000000    0.0000000000000000
     0.0000000000000000   25.0542068481000015    0.0000000000000000
     0.0000000000000000    0.0000000000000000   25.3479995727999992
   C    H    I    N    Pb
    64   384   192    64    64
Direct
  0.1390901007056066  0.1134986588624584  0.1152359700777592
  0.1390901007056065  0.1134986588624583  0.6152359600777577
  0.1390901007056066  0.6134986488624583  0.1152359700777591
  0.1390901007056066  0.6134986488624582  0.6152359600777575
  0.6390900727056067  0.1134986588624584  0.1152359700777592
  0.6390900727056067  0.1134986588624585  0.6152359600777576
  0.6390900727056067  0.6134986488624582  0.1152359700777591
  0.6390900727056067  0.6134986488624581  0.6152359600777576
  0.3890901027056054  0.3634986488624576  0.1152359700777591
  0.3890901027056054  0.3634986488624580  0.6152359600777576
  0.3890901027056054  0.8634986488624581  0.1152359700777590
  0.3890901027056056  0.8634986488624583  0.6152359600777577
  0.8890900727056068  0.3634986488624579  0.1152359700777592
  0.8890900727056067  0.3634986488624579  0.6152359600777576
  0.8890900727056067  0.8634986488624584  0.1152359700777591
  0.8890900727056067  0.8634986488624582  0.6152359600777575
  0.1268287357478740  0.3575358537408542  0.1718972157019660
  0.1268287357478737  0.3575358537408541  0.6718972157019648
  0.1268287357478740  0.8575358237408531  0.1718972157019659
  0.1268287357478739  0.8575358237408531  0.6718972157019646
  0.6268287357478713  0.3575358537408542  0.1718972157019658
  0.6268287357478713  0.3575358537408540  0.6718972157019648
  0.6268287357478719  0.8575358237408529  0.1718972157019658
  0.6268287357478713  0.8575358237408531  0.6718972157019646
  0.3768287357478753  0.1075358237408549  0.1718972157019658
  0.3768287357478750  0.1075358237408549  0.6718972157019646
  0.3768287357478752  0.6075358237408534  0.1718972157019657
  0.3768287357478750  0.6075358237408534  0.6718972157019647
  0.8768287357478720  0.1075358237408549  0.1718972157019659
  0.8768287357478713  0.1075358237408549  0.6718972157019647
  0.8768287357478718  0.6075358237408531  0.1718972157019660
  0.8768287357478713  0.6075358237408534  0.6718972157019646
  0.1104086265055070  0.1568473926367701  0.3843017791653317
  0.1104086265055071  0.1568473926367701  0.8843017791653333
  0.1104086265055072  0.6568473626367700  0.3843017791653316
  0.1104086265055071  0.6568473626367698  0.8843017791653329
  0.6104085965055076  0.1568473926367702  0.3843017791653317
  0.6104085965055078  0.1568473926367700  0.8843017791653327
  0.6104085965055079  0.6568473626367698  0.3843017791653317
  0.6104085965055076  0.6568473626367698  0.8843017791653333
  0.3604086265055063  0.4068473926367703  0.3843017791653317
  0.3604086265055064  0.4068473926367700  0.8843017791653333
  0.3604086265055064  0.9068473626367698  0.3843017791653316
  0.3604086265055064  0.9068473626367699  0.8843017791653331
  0.8604085965055076  0.4068473926367700  0.3843017791653316
  0.8604085965055079  0.4068473926367701  0.8843017791653333
  0.8604085965055076  0.9068473626367701  0.3843017791653316
  0.8604085965055076  0.9068473626367700  0.8843017791653331
  0.0889199152187547  0.3424524530341235  0.3629304359659116
  0.0889199152187549  0.3424524530341235  0.8629304659659112
  0.0889199152187548  0.8424524730341238  0.3629304359659115
  0.0889199152187547  0.8424524730341240  0.8629304659659111
  0.5889198852187522  0.3424524530341234  0.3629304359659116
  0.5889198852187522  0.3424524530341235  0.8629304659659111
  0.5889198852187522  0.8424524730341238  0.3629304359659115
  0.5889198852187524  0.8424524730341241  0.8629304659659111
  0.3389199152187547  0.0924524730341231  0.3629304359659115
  0.3389199152187553  0.0924524730341233  0.8629304659659111
  0.3389199152187548  0.5924524730341238  0.3629304359659115
  0.3389199152187549  0.5924524730341240  0.8629304659659112
  0.8389198852187522  0.0924524730341231  0.3629304359659115
  0.8389198852187522  0.0924524730341235  0.8629304659659111
  0.8389198852187524  0.5924524730341240  0.3629304359659117
  0.8389198852187522  0.5924524730341240  0.8629304659659109
  0.4045057048290595  0.0861842689954358  0.1461311508789989
  0.4045057048290595  0.0861842689954357  0.6461311308790016
  0.4045057048290597  0.5861842689954342  0.1461311508789985
  0.4045057048290596  0.5861842689954344  0.6461311308790012
  0.9045057048290632  0.0861842689954357  0.1461311508789992
  0.9045057048290621  0.0861842689954360  0.6461311308790018
  0.9045057048290626  0.5861842689954346  0.1461311508789993
  0.9045057048290618  0.5861842689954340  0.6461311308790018
  0.1545057048290602  0.3361842689954366  0.1461311508789995
  0.1545057048290603  0.3361842689954364  0.6461311308790019
  0.1545057048290609  0.8361842689954344  0.1461311508789993
  0.1545057048290609  0.8361842689954344  0.6461311308790011
  0.6545057048290621  0.3361842689954366  0.1461311508789989
  0.6545057048290625  0.3361842689954367  0.6461311308790013
  0.6545057048290623  0.8361842689954346  0.1461311508789983
  0.6545057048290619  0.8361842689954345  0.6461311308790012
  0.0883179086671716  0.3373641796879047  0.1725056987436901
  0.0883179086671713  0.3373641796879046  0.6725057287436885
  0.0883179086671712  0.8373641496879042  0.1725056987436904
  0.0883179086671711  0.8373641496879050  0.6725057287436889
  0.5883179296671733  0.3373641796879047  0.1725056987436917
  0.5883179296671728  0.3373641796879052  0.6725057287436886
  0.5883179296671730  0.8373641496879036  0.1725056987436906
  0.5883179296671737  0.8373641496879042  0.6725057287436889
  0.3383179296671717  0.0873641496879051  0.1725056987436904
  0.3383179296671729  0.0873641496879050  0.6725057287436890
  0.3383179296671718  0.5873641496879038  0.1725056987436908
  0.3383179296671718  0.5873641496879045  0.6725057287436890
  0.8383179296671728  0.0873641496879054  0.1725056987436907
  0.8383179296671728  0.0873641496879054  0.6725057287436886
  0.8383179296671732  0.5873641496879047  0.1725056987436905
  0.8383179296671731  0.5873641496879038  0.6725057287436889
  0.1437007449800767  0.3601377274100073  0.2116073055880728
  0.1437007449800771  0.3601377274100074  0.7116073155880738
  0.1437007449800766  0.8601376974100072  0.2116073055880728
  0.1437007449800766  0.8601376974100072  0.7116073155880749
  0.6437007149800783  0.3601377274100070  0.2116073055880727
  0.6437007149800784  0.3601377274100072  0.7116073155880744
  0.6437007149800781  0.8601376974100078  0.2116073055880726
  0.6437007149800783  0.8601376974100076  0.7116073155880739
  0.3937007449800758  0.1101376974100074  0.2116073055880726
  0.3937007449800760  0.1101376974100077  0.7116073155880748
  0.3937007449800753  0.6101376974100073  0.2116073055880725
  0.3937007449800755  0.6101376974100070  0.7116073155880734
  0.8937007149800784  0.1101376974100073  0.2116073055880727
  0.8937007149800785  0.1101376974100074  0.7116073155880747
  0.8937007149800784  0.6101376974100081  0.2116073055880722
  0.8937007149800785  0.6101376974100081  0.7116073155880743
  0.4055498430819319  0.1811720254061641  0.1425397502992711
  0.4055498430819310  0.1811720254061638  0.6425397672992703
  0.4055498430819311  0.6811720354061634  0.1425397502992716
  0.4055498430819309  0.6811720354061641  0.6425397672992699
  0.9055498430819323  0.1811720254061642  0.1425397502992720
  0.9055498430819332  0.1811720254061640  0.6425397672992704
  0.9055498430819331  0.6811720354061643  0.1425397502992716
  0.9055498430819321  0.6811720354061640  0.6425397672992702
  0.1555498430819306  0.4311720354061639  0.1425397502992716
  0.1555498430819306  0.4311720354061639  0.6425397672992703
  0.1555498430819310  0.9311720354061641  0.1425397502992716
  0.1555498430819317  0.9311720354061642  0.6425397672992700
  0.6555498430819322  0.4311720354061639  0.1425397502992720
  0.6555498430819332  0.4311720354061638  0.6425397672992699
  0.6555498430819332  0.9311720354061639  0.1425397502992714
  0.6555498430819321  0.9311720354061640  0.6425397672992703
  0.3521521997247618  0.1878725068800388  0.1798404850538139
  0.3521521997247615  0.1878725068800389  0.6798404650538150
  0.3521521997247621  0.6878724968800394  0.1798404850538138
  0.3521521997247616  0.6878724968800393  0.6798404650538147
  0.8521521997247625  0.1878725068800389  0.1798404850538141
  0.8521521997247632  0.1878725068800390  0.6798404650538149
  0.8521521997247629  0.6878724968800392  0.1798404850538136
  0.8521521997247626  0.6878724968800396  0.6798404650538149
  0.1021521997247621  0.4378724968800388  0.1798404850538143
  0.1021521997247621  0.4378724968800392  0.6798404650538147
  0.1021521997247623  0.9378724968800390  0.1798404850538142
  0.1021521997247618  0.9378724968800394  0.6798404650538147
  0.6021521997247625  0.4378724968800389  0.1798404850538138
  0.6021521997247637  0.4378724968800389  0.6798404650538148
  0.6021521997247631  0.9378724968800387  0.1798404850538141
  0.6021521997247626  0.9378724968800394  0.6798404650538145
  0.3445062048020614  0.1641159090732081  0.1186282496399009
  0.3445062048020609  0.1641159090732080  0.6186282796399026
  0.3445062048020611  0.6641159090732063  0.1186282496399012
  0.3445062048020610  0.6641159090732065  0.6186282796399027
  0.8445062348020608  0.1641159090732086  0.1186282496399010
  0.8445062348020608  0.1641159090732081  0.6186282796399022
  0.8445062348020607  0.6641159090732062  0.1186282496399011
  0.8445062348020614  0.6641159090732064  0.6186282796399024
  0.0945062348020592  0.4141159090732090  0.1186282496399008
  0.0945062348020593  0.4141159090732088  0.6186282796399026
  0.0945062348020590  0.9141159090732065  0.1186282496399009
  0.0945062348020590  0.9141159090732067  0.6186282796399026
  0.5945062348020606  0.4141159090732088  0.1186282496399010
  0.5945062348020603  0.4141159090732086  0.6186282796399022
  0.5945062348020604  0.9141159090732069  0.1186282496399008
  0.5945062348020602  0.9141159090732071  0.6186282796399027
  0.3290350455483878  0.3824551990026460  0.1716983674382773
  0.3290350455483875  0.3824551990026459  0.6716983974382758
  0.3290350455483877  0.8824551690026451  0.1716983674382769
  0.3290350455483876  0.8824551690026449  0.6716983974382762
  0.8290350455483876  0.3824551990026467  0.1716983674382769
  0.8290350455483874  0.3824551990026462  0.6716983974382760
  0.8290350455483876  0.8824551690026451  0.1716983674382773
  0.8290350455483874  0.8824551690026451  0.6716983974382759
  0.0790350455483879  0.1324551690026457  0.1716983674382770
  0.0790350455483878  0.1324551690026456  0.6716983974382761
  0.0790350455483878  0.6324551690026450  0.1716983674382771
  0.0790350455483881  0.6324551690026450  0.6716983974382761
  0.5790350455483875  0.1324551690026460  0.1716983674382773
  0.5790350455483876  0.1324551690026456  0.6716983974382760
  0.5790350455483876  0.6324551690026451  0.1716983674382771
  0.5790350455483877  0.6324551690026450  0.6716983974382761
  0.3676609298493566  0.4344319419426035  0.1574421808228548
  0.3676609298493571  0.4344319419426035  0.6574421788228546
  0.3676609298493566  0.9344319419426027  0.1574421808228546
  0.3676609298493568  0.9344319419426024  0.6574421788228547
  0.8676609298493547  0.4344319419426037  0.1574421808228550
  0.8676609298493546  0.4344319419426036  0.6574421788228546
  0.8676609298493547  0.9344319419426022  0.1574421808228549
  0.8676609298493551  0.9344319419426028  0.6574421788228546
  0.1176609298493558  0.1844319419426027  0.1574421808228546
  0.1176609298493562  0.1844319419426031  0.6574421788228546
  0.1176609298493556  0.6844319419426022  0.1574421808228546
  0.1176609298493564  0.6844319419426020  0.6574421788228549
  0.6176609298493545  0.1844319419426028  0.1574421808228547
  0.6176609298493547  0.1844319419426030  0.6574421788228549
  0.6176609298493545  0.6844319419426018  0.1574421808228547
  0.6176609298493546  0.6844319419426027  0.6574421788228544
  0.3910574001337372  0.3861770869282797  0.1957573576011331
  0.3910574001337370  0.3861770869282794  0.6957573576011336
  0.3910574001337369  0.8861770869282813  0.1957573576011328
  0.3910574001337370  0.8861770869282817  0.6957573576011333
  0.8910574001337381  0.3861770869282796  0.1957573576011328
  0.8910574001337381  0.3861770869282795  0.6957573576011337
  0.8910574001337381  0.8861770869282812  0.1957573576011327
  0.8910574001337381  0.8861770869282812  0.6957573576011337
  0.1410574001337371  0.1361770869282799  0.1957573576011329
  0.1410574001337366  0.1361770869282797  0.6957573576011337
  0.1410574001337367  0.6361770869282812  0.1957573576011329
  0.1410574001337367  0.6361770869282808  0.6957573576011336
  0.6410574001337381  0.1361770869282798  0.1957573576011326
  0.6410574001337381  0.1361770869282793  0.6957573576011338
  0.6410574001337381  0.6361770869282812  0.1957573576011330
  0.6410574001337381  0.6361770869282813  0.6957573576011336
  0.1054158876522957  0.1035653671287039  0.0895537850047804
  0.1054158876522957  0.1035653671287037  0.5895537650047797
  0.1054158876522960  0.6035653471287042  0.0895537850047803
  0.1054158876522959  0.6035653471287049  0.5895537650047802
  0.6054158546522962  0.1035653671287046  0.0895537850047805
  0.6054158546522963  0.1035653671287039  0.5895537650047801
  0.6054158546522969  0.6035653471287052  0.0895537850047802
  0.6054158546522967  0.6035653471287050  0.5895537650047802
  0.3554158846522953  0.3535653771287032  0.0895537850047802
  0.3554158846522954  0.3535653771287037  0.5895537650047800
  0.3554158846522955  0.8535653471287049  0.0895537850047805
  0.3554158846522955  0.8535653471287047  0.5895537650047800
  0.8554158546522961  0.3535653771287036  0.0895537850047802
  0.8554158546522964  0.3535653771287031  0.5895537650047805
  0.8554158546522962  0.8535653471287055  0.0895537850047808
  0.8554158546522967  0.8535653471287054  0.5895537650047800
  0.4087113913473969  0.3271810134647600  0.1299323651327759
  0.4087113913473970  0.3271810134647596  0.6299323651327742
  0.4087113913473969  0.8271810134647608  0.1299323651327763
  0.4087113913473968  0.8271810134647609  0.6299323651327742
  0.9087113913473978  0.3271810134647595  0.1299323651327758
  0.9087113913473981  0.3271810134647595  0.6299323651327741
  0.9087113913473979  0.8271810134647615  0.1299323651327760
  0.9087113913473978  0.8271810134647608  0.6299323651327743
  0.1587113873473972  0.0771810234647607  0.1299323651327761
  0.1587113873473975  0.0771810234647605  0.6299323651327742
  0.1587113873473973  0.5771810134647613  0.1299323651327762
  0.1587113873473972  0.5771810134647608  0.6299323651327741
  0.6587113913473981  0.0771810234647608  0.1299323651327758
  0.6587113913473979  0.0771810234647602  0.6299323651327738
  0.6587113913473978  0.5771810134647609  0.1299323651327764
  0.6587113913473979  0.5771810134647615  0.6299323651327743
  0.1674042942779092  0.1386333577710127  0.0937731965317447
  0.1674042942779091  0.1386333577710116  0.5937731865317436
  0.1674042942779092  0.6386333677710133  0.0937731965317446
  0.1674042942779094  0.6386333677710134  0.5937731865317448
  0.6674043102779119  0.1386333577710122  0.0937731965317448
  0.6674043102779117  0.1386333577710121  0.5937731865317447
  0.6674043102779121  0.6386333677710133  0.0937731965317446
  0.6674043102779115  0.6386333677710133  0.5937731865317448
  0.4174043102779093  0.3886333677710133  0.0937731965317448
  0.4174043102779091  0.3886333677710128  0.5937731865317442
  0.4174043102779095  0.8886333677710133  0.0937731965317447
  0.4174043102779095  0.8886333677710133  0.5937731865317439
  0.9174043102779118  0.3886333677710130  0.0937731965317450
  0.9174043102779118  0.3886333677710128  0.5937731865317448
  0.9174043102779120  0.8886333677710135  0.0937731965317448
  0.9174043102779118  0.8886333677710133  0.5937731865317448
  0.4184400878149026  0.3579355919385620  0.4208343981188633
  0.4184400878149029  0.3579355919385616  0.9208343981188659
  0.4184400878149028  0.8579355619385649  0.4208343981188640
  0.4184400878149028  0.8579355619385649  0.9208343981188655
  0.9184400878149033  0.3579355919385620  0.4208343981188638
  0.9184400878149044  0.3579355919385615  0.9208343981188651
  0.9184400878149033  0.8579355619385651  0.4208343981188637
  0.9184400878149046  0.8579355619385651  0.9208343981188661
  0.1684400778149033  0.1079355519385619  0.4208343981188639
  0.1684400778149038  0.1079355519385618  0.9208343981188651
  0.1684400778149031  0.6079355619385651  0.4208343981188636
  0.1684400778149031  0.6079355619385649  0.9208343981188656
  0.6684400878149048  0.1079355519385620  0.4208343981188639
  0.6684400878149044  0.1079355519385621  0.9208343981188658
  0.6684400878149039  0.6079355619385649  0.4208343981188641
  0.6684400878149037  0.6079355619385650  0.9208343981188652
  0.4446868260672579  0.4131453357944790  0.3908301326477334
  0.4446868260672589  0.4131453357944791  0.8908301026477325
  0.4446868260672583  0.9131453357944779  0.3908301326477333
  0.4446868260672584  0.9131453357944780  0.8908301026477325
  0.9446868260672563  0.4131453357944791  0.3908301326477333
  0.9446868260672565  0.4131453357944790  0.8908301026477324
  0.9446868260672563  0.9131453357944779  0.3908301326477333
  0.9446868260672566  0.9131453357944782  0.8908301026477322
  0.1946868290672583  0.1631453357944786  0.3908301326477331
  0.1946868290672579  0.1631453357944786  0.8908301026477321
  0.1946868290672582  0.6631453357944775  0.3908301326477333
  0.1946868290672584  0.6631453357944773  0.8908301026477320
  0.6946868260672563  0.1631453357944785  0.3908301326477333
  0.6946868260672563  0.1631453357944789  0.8908301026477322
  0.6946868260672562  0.6631453357944780  0.3908301326477328
  0.6946868260672567  0.6631453357944778  0.8908301026477324
  0.4247980468688489  0.3604141870910355  0.3557405216787548
  0.4247980468688491  0.3604141870910348  0.8557405516787553
  0.4247980468688489  0.8604142170910353  0.3557405216787550
  0.4247980468688491  0.8604142170910354  0.8557405516787555
  0.9247980468688475  0.3604141870910350  0.3557405216787547
  0.9247980468688471  0.3604141870910351  0.8557405516787553
  0.9247980468688468  0.8604142170910354  0.3557405216787548
  0.9247980468688478  0.8604142170910358  0.8557405516787556
  0.1747980468688482  0.1104142170910351  0.3557405216787549
  0.1747980468688477  0.1104142170910340  0.8557405516787553
  0.1747980468688478  0.6104142170910360  0.3557405216787550
  0.1747980468688482  0.6104142170910353  0.8557405516787558
  0.6747980468688474  0.1104142170910349  0.3557405216787550
  0.6747980468688473  0.1104142170910346  0.8557405516787556
  0.6747980468688477  0.6104142170910359  0.3557405216787549
  0.6747980468688479  0.6104142170910356  0.8557405516787554
  0.1012581438996513  0.1759601309946865  0.4222534433066378
  0.1012581438996510  0.1759601309946869  0.9222534733066365
  0.1012581438996515  0.6759601409946870  0.4222534433066373
  0.1012581438996509  0.6759601409946867  0.9222534733066370
  0.6012581638996503  0.1759601309946867  0.4222534433066375
  0.6012581638996509  0.1759601309946876  0.9222534733066372
  0.6012581638996499  0.6759601409946869  0.4222534433066375
  0.6012581638996505  0.6759601409946868  0.9222534733066372
  0.3512581638996515  0.4259601409946874  0.4222534433066379
  0.3512581638996518  0.4259601409946870  0.9222534733066371
  0.3512581638996514  0.9259601409946873  0.4222534433066377
  0.3512581638996520  0.9259601409946867  0.9222534733066370
  0.8512581638996505  0.4259601409946863  0.4222534433066376
  0.8512581638996505  0.4259601409946871  0.9222534733066365
  0.8512581638996505  0.9259601409946869  0.4222534433066378
  0.8512581638996501  0.9259601409946872  0.9222534733066364
  0.0818162176330578  0.1246001905962073  0.3768761935560604
  0.0818162176330578  0.1246001905962071  0.8768762235560610
  0.0818162176330576  0.6246001905962061  0.3768761935560605
  0.0818162176330584  0.6246001905962051  0.8768762235560617
  0.5818161876330583  0.1246001905962075  0.3768761935560607
  0.5818161876330582  0.1246001905962075  0.8768762235560620
  0.5818161876330585  0.6246001905962063  0.3768761935560611
  0.5818161876330591  0.6246001905962062  0.8768762235560621
  0.3318162176330570  0.3746001905962060  0.3768761935560610
  0.3318162176330572  0.3746001905962058  0.8768762235560620
  0.3318162176330572  0.8746001905962070  0.3768761935560605
  0.3318162176330575  0.8746001905962053  0.8768762235560620
  0.8318161876330586  0.3746001905962059  0.3768761935560606
  0.8318161876330589  0.3746001905962057  0.8768762235560619
  0.8318161876330583  0.8746001905962061  0.3768761935560612
  0.8318161876330588  0.8746001905962059  0.8768762235560618
  0.3604103792552821  0.4356614653206939  0.3518251320318692
  0.3604103792552821  0.4356614653206940  0.8518251320318695
  0.3604103792552815  0.9356614653206929  0.3518251320318697
  0.3604103792552814  0.9356614653206927  0.8518251320318686
  0.8604103792552846  0.4356614653206938  0.3518251320318701
  0.8604103792552850  0.4356614653206941  0.8518251320318690
  0.8604103792552851  0.9356614653206931  0.3518251320318694
  0.8604103792552849  0.9356614653206935  0.8518251320318690
  0.1104103792552828  0.1856614693206944  0.3518251320318699
  0.1104103792552825  0.1856614693206933  0.8518251320318688
  0.1104103792552830  0.6856614653206931  0.3518251320318685
  0.1104103792552823  0.6856614653206931  0.8518251320318692
  0.6104103792552847  0.1856614693206932  0.3518251320318692
  0.6104103792552845  0.1856614693206941  0.8518251320318692
  0.6104103792552850  0.6856614653206933  0.3518251320318692
  0.6104103792552841  0.6856614653206931  0.8518251320318688
  0.3592903286466370  0.1707395318205549  0.3877403849614400
  0.3592903286466370  0.1707395318205548  0.8877403849614389
  0.3592903286466364  0.6707395018205560  0.3877403849614395
  0.3592903286466366  0.6707395018205563  0.8877403849614389
  0.8592903586466363  0.1707395318205548  0.3877403849614395
  0.8592903586466371  0.1707395318205548  0.8877403849614389
  0.8592903586466367  0.6707395018205564  0.3877403849614396
  0.8592903586466375  0.6707395018205566  0.8877403849614388
  0.1092903626466368  0.4207395318205544  0.3877403849614403
  0.1092903626466368  0.4207395318205542  0.8877403849614389
  0.1092903626466367  0.9207395018205563  0.3877403849614399
  0.1092903626466369  0.9207395018205563  0.8877403849614389
  0.6092903586466369  0.4207395318205543  0.3877403849614388
  0.6092903586466366  0.4207395318205548  0.8877403849614389
  0.6092903586466366  0.9207395018205563  0.3877403849614397
  0.6092903586466368  0.9207395018205564  0.8877403849614389
  0.3946642386209941  0.1232948559324790  0.4191764717930528
  0.3946642386209946  0.1232948559324790  0.9191764917930506
  0.3946642386209941  0.6232948589324805  0.4191764717930528
  0.3946642386209943  0.6232948589324804  0.9191764917930507
  0.8946642386209915  0.1232948559324796  0.4191764717930528
  0.8946642386209912  0.1232948559324791  0.9191764917930507
  0.8946642386209914  0.6232948589324806  0.4191764717930528
  0.8946642386209916  0.6232948589324804  0.9191764917930505
  0.1446642356209944  0.3732948589324797  0.4191764717930528
  0.1446642356209951  0.3732948589324802  0.9191764917930507
  0.1446642356209947  0.8732948589324805  0.4191764717930528
  0.1446642356209945  0.8732948589324804  0.9191764917930507
  0.6446642386209915  0.3732948589324802  0.4191764717930528
  0.6446642386209918  0.3732948589324800  0.9191764917930507
  0.6446642386209915  0.8732948589324804  0.4191764717930528
  0.6446642386209914  0.8732948589324805  0.9191764917930505
  0.3304463661142794  0.1346045392265686  0.4342582870448398
  0.3304463661142798  0.1346045392265687  0.9342583170448422
  0.3304463661142799  0.6346045222265686  0.4342582870448402
  0.3304463661142797  0.6346045222265693  0.9342583170448414
  0.8304463661142797  0.1346045392265687  0.4342582870448404
  0.8304463661142794  0.1346045392265686  0.9342583170448420
  0.8304463661142797  0.6346045222265686  0.4342582870448396
  0.8304463661142794  0.6346045222265692  0.9342583170448413
  0.0804463661142808  0.3846045222265675  0.4342582870448399
  0.0804463661142807  0.3846045222265681  0.9342583170448419
  0.0804463661142810  0.8846045222265689  0.4342582870448400
  0.0804463661142808  0.8846045222265695  0.9342583170448420
  0.5804463661142795  0.3846045222265677  0.4342582870448400
  0.5804463661142794  0.3846045222265677  0.9342583170448417
  0.5804463661142798  0.8846045222265689  0.4342582870448399
  0.5804463661142795  0.8846045222265688  0.9342583170448417
  0.0744443560334774  0.3078689425113639  0.3845485297499717
  0.0744443560334771  0.3078689425113645  0.8845485297499699
  0.0744443560334771  0.8078689125113636  0.3845485297499716
  0.0744443560334773  0.8078689125113641  0.8845485297499699
  0.5744443560334789  0.3078689425113643  0.3845485297499712
  0.5744443560334790  0.3078689425113644  0.8845485297499697
  0.5744443560334790  0.8078689125113639  0.3845485297499713
  0.5744443560334789  0.8078689125113643  0.8845485297499701
  0.3244443560334778  0.0578689125113649  0.3845485297499717
  0.3244443560334772  0.0578689125113649  0.8845485297499700
  0.3244443560334777  0.5578689125113639  0.3845485297499716
  0.3244443560334777  0.5578689125113638  0.8845485297499699
  0.8244443560334784  0.0578689125113650  0.3845485297499716
  0.8244443560334790  0.0578689125113649  0.8845485297499699
  0.8244443560334791  0.5578689125113642  0.3845485297499716
  0.8244443560334790  0.5578689125113645  0.8845485297499696
  0.1222694746892559  0.3316041911437715  0.3370595826033883
  0.1222694746892560  0.3316041911437714  0.8370595526033879
  0.1222694746892563  0.8316041911437685  0.3370595826033884
  0.1222694746892559  0.8316041911437680  0.8370595526033884
  0.6222695036892563  0.3316041911437714  0.3370595826033885
  0.6222695036892563  0.3316041911437714  0.8370595526033885
  0.6222695036892562  0.8316041911437682  0.3370595826033882
  0.6222695036892563  0.8316041911437673  0.8370595526033882
  0.3722694736892547  0.0816041911437710  0.3370595826033883
  0.3722694736892546  0.0816041911437710  0.8370595526033882
  0.3722694736892548  0.5816041911437679  0.3370595826033882
  0.3722694736892544  0.5816041911437684  0.8370595526033888
  0.8722695036892566  0.0816041911437714  0.3370595826033881
  0.8722695036892563  0.0816041911437711  0.8370595526033892
  0.8722695036892559  0.5816041911437683  0.3370595826033883
  0.8722695036892565  0.5816041911437678  0.8370595526033884
  0.3066812471455582  0.1104240725040675  0.3400091464435413
  0.3066812471455576  0.1104240725040672  0.8400091764435397
  0.3066812471455580  0.6104240725040673  0.3400091464435410
  0.3066812471455586  0.6104240725040678  0.8400091764435396
  0.8066812471455606  0.1104240725040674  0.3400091464435408
  0.8066812471455603  0.1104240725040675  0.8400091764435397
  0.8066812471455596  0.6104240725040686  0.3400091464435406
  0.8066812471455601  0.6104240725040674  0.8400091764435396
  0.0566812571455596  0.3604240725040667  0.3400091464435411
  0.0566812571455592  0.3604240725040665  0.8400091764435392
  0.0566812571455594  0.8604240725040674  0.3400091464435406
  0.0566812571455596  0.8604240725040674  0.8400091764435396
  0.5566812471455598  0.3604240725040666  0.3400091464435410
  0.5566812471455599  0.3604240725040664  0.8400091764435392
  0.5566812471455604  0.8604240725040680  0.3400091464435411
  0.5566812471455601  0.8604240725040678  0.8400091764435402
  0.0033561499535287  0.0132916131173212  0.1155842735985740
  0.0033561499535287  0.0132916131173212  0.6155842735985747
  0.0033561499535287  0.5132916131173231  0.1155842735985740
  0.0033561499535287  0.5132916131173230  0.6155842735985746
  0.5033561481535282  0.0132916131173212  0.1155842735985740
  0.5033561481535282  0.0132916131173212  0.6155842735985746
  0.5033561481535282  0.5132916131173230  0.1155842735985740
  0.5033561481535282  0.5132916131173230  0.6155842735985746
  0.2533561481535286  0.2632916131173227  0.1155842735985740
  0.2533561481535287  0.2632916131173227  0.6155842735985746
  0.2533561481535286  0.7632916131173210  0.1155842735985740
  0.2533561481535287  0.7632916131173210  0.6155842735985746
  0.7533561481535286  0.2632916131173227  0.1155842735985740
  0.7533561481535286  0.2632916131173227  0.6155842735985746
  0.7533561481535286  0.7632916131173210  0.1155842735985740
  0.7533561481535287  0.7632916131173210  0.6155842735985746
  0.0076884074712784  0.9824162505882166  0.3662278370474127
  0.0076884074712784  0.9824162505882166  0.8662278370474115
  0.0076884074712784  0.4824162495882141  0.3662278370474127
  0.0076884074712784  0.4824162495882141  0.8662278370474114
  0.5076884074712783  0.9824162505882166  0.3662278370474127
  0.5076884074712783  0.9824162505882166  0.8662278370474114
  0.5076884074712783  0.4824162495882141  0.3662278370474127
  0.5076884074712783  0.4824162495882141  0.8662278370474115
  0.2576884074712770  0.2324162495882156  0.3662278370474128
  0.2576884074712770  0.2324162495882156  0.8662278370474114
  0.2576884074712770  0.7324162495882153  0.3662278370474127
  0.2576884074712770  0.7324162495882153  0.8662278370474114
  0.7576884074712785  0.2324162495882156  0.3662278370474127
  0.7576884074712785  0.2324162495882156  0.8662278370474114
  0.7576884074712785  0.7324162495882154  0.3662278370474127
  0.7576884074712785  0.7324162495882153  0.8662278370474112
  0.2449813702272824  0.0003264041387963  0.3787559772889321
  0.2449813702272824  0.0003264041387961  0.8787559772889328
  0.2449813702272824  0.5003264041387966  0.3787559772889321
  0.2449813702272824  0.5003264041387965  0.8787559772889328
  0.7449813702272842  0.0003264041387961  0.3787559772889321
  0.7449813702272842  0.0003264041387961  0.8787559772889328