POSCAR_PEA2MA5Pb6I19_100                
   1.00000000000000     
     6.1984408190272129    0.0000000000000000    0.0000000000000000
     0.0000000000000000    6.2217036482984094    0.0000000000000000
     0.0000000000000000    0.0000000000000000   61.1652668320000004
   C    H    I    N    Pb
    18    36    10     4     3
Direct
  0.9144641227207568  0.9720323379219561  0.4517356343083556
  0.9227012403127578  0.8909381748679708  0.5489532635093691
  0.0283091929756920  0.0782723087536499  0.2622318802900108
  0.8382367701132484  0.1556892524285788  0.2716470964160453
  0.8141571975094630  0.1570147379866441  0.2943649690165301
  0.9803840556887952  0.0820442732275245  0.3078850545072979
  0.1710795811444654  0.0055090939150486  0.2982905980808397
  0.1949842797304456  0.0031297978794313  0.2756089403645706
  0.9529853474189901  0.0741457213577391  0.3323822986467959
  0.9061249601102023  0.8444133581243606  0.3394684267457195
  0.0510584830009049  0.7831274224572913  0.7379050490507603
  0.8604836408435379  0.7045057382348899  0.7286954883457487
  0.8339983466166053  0.7030822979188153  0.7060052247019529
  0.9982822534530261  0.7792737245334453  0.6923117185686608
  0.1894378770682379  0.8570789947156392  0.7016986439517436
  0.2157951364477947  0.8594456481070460  0.7243523349126521
  0.9680785624281256  0.7874356517645017  0.6678521002786278
  0.9138720883835667  0.0160372132318719  0.6609323408943535
  0.7614127929264106  0.6739918933141231  0.4445124744527383
  0.9392605052574036  0.6594921858228447  0.4648686774465772
  0.0300593938999378  0.6753369634918152  0.4392868002429831
  0.7916769103410057  0.0195334150940350  0.4637630451502325
  0.0757324905258345  0.0216624193658073  0.4572579362103734
  0.8780176035962697  0.0427802493563190  0.4357034040797434
  0.0845036183308040  0.1858849081497835  0.5555075885912067
  0.8164911643502574  0.1934602959620348  0.5608537767226637
  0.9061370364901323  0.2015295857857436  0.5351939874468900
  0.9576757037985244  0.8225111714228450  0.5651240483506507
  0.7601188473106462  0.8445932063490246  0.5435395520383245
  0.0440295304593267  0.8376463539125908  0.5370238512005039
  0.0468296238902443  0.0766055556389226  0.2444556313403679
  0.7076024251291152  0.2158608093888865  0.2612990021754944
  0.6649789355919702  0.2178021482319377  0.3017177153383822
  0.3021025225122465  0.9468066287332716  0.3087507940058288
  0.3444572971938384  0.9423981325854763  0.2683871368578054
  0.8199618753411627  0.1810222966187930  0.3375514116499437
  0.1019959304669030  0.1312241857545021  0.3404622659058915
  0.0366375602817946  0.7337548576092038  0.3346880017921121
  0.7528604725910121  0.7837398385496011  0.3328048292955386
  0.8696332696409325  0.6712146433447692  0.3692120750513134
  0.7573171291273827  0.9152905835785627  0.3700180131744660
  0.0272834973976238  0.8879344059017935  0.3716386986874040
  0.0714623545268074  0.7848178484091395  0.7556599447873914
  0.7313625149125775  0.6434803880422657  0.7391851771220291
  0.6844315209440889  0.6413771293882674  0.6988112789600269
  0.3188293970791781  0.9167977901330284  0.6910906902583448
  0.3656611733094141  0.9210552896518330  0.7314130456916281
  0.8376623182154213  0.6770447448806628  0.6627604570538761
  0.1178528584898332  0.7351330577789157  0.6595900704113211
  0.0416493526745625  0.1300992104262417  0.6656524023221222
  0.7595838636946867  0.0720163198424398  0.6677745773118002
  0.8704013135715049  0.1893812785238312  0.6313115567143431
  0.7640548455240526  0.9426985127880667  0.6304928680050714
  0.0331857041077181  0.9766065121004616  0.6286481609897100
  0.9019621507213850  0.3652790985450553  0.3978268427115416
  0.9195571309045151  0.4324656591943607  0.5001511829387940
  0.9058588625736637  0.4946805470810558  0.6024784082429470
  0.3879238563635931  0.9048908731204300  0.3985362477944839
  0.4185517752438195  0.9321999428215300  0.5003855610548783
  0.3935004343732960  0.9557983144483944  0.6021553880210947
  0.4251682327906766  0.4622881606223687  0.3437375679014332
  0.4144643469284098  0.4306653659599132  0.4478624692655747
  0.4256019717622776  0.4320907042505867  0.5526785772819082
  0.4361511408733505  0.3991070506753416  0.6567998110260602
  0.9110983505398037  0.7326664032387610  0.4497442404671966
  0.9329568433652735  0.1304148026893051  0.5504436640498226
  0.8886527318046707  0.8299856994542449  0.3639402651344358
  0.8937729296617231  0.0309420977829584  0.6364878825340492
  0.4029154498024146  0.4069430475511844  0.3930774448920386
  0.4195402319414266  0.4322062979058445  0.5002862161609163
  0.4068577678884995  0.4538589186846226  0.6074883458806235
 
  0.00000000E+00  0.00000000E+00  0.00000000E+00
  0.00000000E+00  0.00000000E+00  0.00000000E+00
  0.00000000E+00  0.00000000E+00  0.00000000E+00
  0.00000000E+00  0.00000000E+00  0.00000000E+00
  0.00000000E+00  0.00000000E+00  0.00000000E+00
  0.00000000E+00  0.00000000E+00  0.00000000E+00
  0.00000000E+00  0.00000000E+00  0.00000000E+00
  0.00000000E+00  0.00000000E+00  0.00000000E+00
  0.00000000E+00  0.00000000E+00  0.00000000E+00
  0.00000000E+00  0.00000000E+00  0.00000000E+00
  0.00000000E+00  0.00000000E+00  0.00000000E+00
  0.00000000E+00  0.00000000E+00  0.00000000E+00
  0.00000000E+00  0.00000000E+00  0.00000000E+00
  0.00000000E+00  0.00000000E+00  0.00000000E+00
  0.00000000E+00  0.00000000E+00  0.00000000E+00
  0.00000000E+00  0.00000000E+00  0.00000000E+00
  0.00000000E+00  0.00000000E+00  0.00000000E+00
  0.00000000E+00  0.00000000E+00  0.00000000E+00
  0.00000000E+00  0.00000000E+00  0.00000000E+00
  0.00000000E+00  0.00000000E+00  0.00000000E+00
  0.00000000E+00  0.00000000E+00  0.00000000E+00
  0.00000000E+00  0.00000000E+00  0.00000000E+00
  0.00000000E+00  0.00000000E+00  0.00000000E+00
  0.00000000E+00  0.00000000E+00  0.00000000E+00
  0.00000000E+00  0.00000000E+00  0.00000000E+00
  0.00000000E+00  0.00000000E+00  0.00000000E+00
  0.00000000E+00  0.00000000E+00  0.00000000E+00
  0.00000000E+00  0.00000000E+00  0.00000000E+00
  0.00000000E+00  0.00000000E+00  0.00000000E+00
  0.00000000E+00  0.00000000E+00  0.00000000E+00
  0.00000000E+00  0.00000000E+00  0.00000000E+00
  0.00000000E+00  0.00000000E+00  0.00000000E+00
  0.00000000E+00  0.00000000E+00  0.00000000E+00
  0.00000000E+00  0.00000000E+00  0.00000000E+00
  0.00000000E+00  0.00000000E+00  0.00000000E+00
  0.00000000E+00  0.00000000E+00  0.00000000E+00
  0.00000000E+00  0.00000000E+00  0.00000000E+00
  0.00000000E+00  0.00000000E+00  0.00000000E+00
  0.00000000E+00  0.00000000E+00  0.00000000E+00
  0.00000000E+00  0.00000000E+00  0.00000000E+00
  0.00000000E+00  0.00000000E+00  0.00000000E+00
  0.00000000E+00  0.00000000E+00  0.00000000E+00
  0.00000000E+00  0.00000000E+00  0.00000000E+00
  0.00000000E+00  0.00000000E+00  0.00000000E+00
  0.00000000E+00  0.00000000E+00  0.00000000E+00
  0.00000000E+00  0.00000000E+00  0.00000000E+00
  0.00000000E+00  0.00000000E+00  0.00000000E+00
  0.00000000E+00  0.00000000E+00  0.00000000E+00
  0.00000000E+00  0.00000000E+00  0.00000000E+00
  0.00000000E+00  0.00000000E+00  0.00000000E+00
  0.00000000E+00  0.00000000E+00  0.00000000E+00
  0.00000000E+00  0.00000000E+00  0.00000000E+00
  0.00000000E+00  0.00000000E+00  0.00000000E+00
  0.00000000E+00  0.00000000E+00  0.00000000E+00
  0.00000000E+00  0.00000000E+00  0.00000000E+00
  0.00000000E+00  0.00000000E+00  0.00000000E+00
  0.00000000E+00  0.00000000E+00  0.00000000E+00
  0.00000000E+00  0.00000000E+00  0.00000000E+00
  0.00000000E+00  0.00000000E+00  0.00000000E+00
  0.00000000E+00  0.00000000E+00  0.00000000E+00
  0.00000000E+00  0.00000000E+00  0.00000000E+00
  0.00000000E+00  0.00000000E+00  0.00000000E+00
  0.00000000E+00  0.00000000E+00  0.00000000E+00
  0.00000000E+00  0.00000000E+00  0.00000000E+00
  0.00000000E+00  0.00000000E+00  0.00000000E+00
  0.00000000E+00  0.00000000E+00  0.00000000E+00
  0.00000000E+00  0.00000000E+00  0.00000000E+00
  0.00000000E+00  0.00000000E+00  0.00000000E+00
  0.00000000E+00  0.00000000E+00  0.00000000E+00
  0.00000000E+00  0.00000000E+00  0.00000000E+00
  0.00000000E+00  0.00000000E+00  0.00000000E+00
