POSCAR_PEA2MA5Pb6I19_100                
   1.00000000000000     
     6.0557674065102107    0.0000000000000000    0.0000000000000000
     0.0000000000000000    6.0289043024709130    0.0000000000000000
     0.0000000000000000    0.0000000000000000   48.1332312812999987
   C    H    I    N    Pb
    16    24     4     2     1
Direct
  0.0630292109328548  0.1163380823839749  0.3206506368128286
  0.8811575614430797  0.2172290819646225  0.3333180342531553
  0.8601561662532440  0.2150988457543997  0.3622108526064498
  0.0206102011375417  0.1116381896260405  0.3787532917879771
  0.2021572489752332  0.0105690550546970  0.3658591957572312
  0.2239250864188367  0.0132627062543687  0.3369903671127926
  0.9921746866386051  0.0975219204730450  0.4098198816890875
  0.8414856065480283  0.9035741497103444  0.4169882726131455
  0.1051674409070756  0.7614729634175025  0.6799683094312473
  0.9225059034697757  0.6558470627811556  0.6680852676767004
  0.8945014733938746  0.6563478641098902  0.6393114882950900
  0.0484338325228047  0.7626473246746217  0.6220520687135589
  0.2301227492795665  0.8691628652481932  0.6341584826378510
  0.2590383220129832  0.8681315785081540  0.6629471972001009
  0.0126245321352851  0.7676085771685490  0.5910687405626320
  0.8511910372975249  0.9511045271229761  0.5832538430240872
  0.0794234377167020  0.1179904708680602  0.2980314878240591
  0.7546570828957370  0.2981245099520964  0.3206480214574304
  0.7172047427314283  0.2942404114148025  0.3720866909504714
  0.3267087462705476  0.9274296468601221  0.3786745291860387
  0.3670453368581011  0.9343311925883195  0.3272674372396175
  0.9204111918979171  0.2525509912925562  0.4181101339775280
  0.1540425918286167  0.0744977637500571  0.4199734555939551
 -0.0965668583872732  0.7469000618508449  0.4081416835364604
  0.6714483070694472  0.9304604910147476  0.4096438183439703
  0.6993609785829829  0.7597577916343350  0.4521971724208547
  0.8027744121989776  0.0184509113312572  0.4584700268945787
 -0.0241321417657728  0.8012047052226350  0.4551742450507600
  0.1275002339838294  0.7604789568611050  0.7025062062404347
  0.8013305337693943  0.5720811996213442  0.6812787073025003
  0.7514513498567303  0.5730380217882516  0.6300115931300330
  0.3496366770745043  0.9544367936440440  0.6208110052622401
  0.4025728407769847  0.9507176886404736  0.6720808329496594
  0.9455690278391233  0.6065618997295157  0.5840270651311943
  0.1702441185085622  0.7932624906009305  0.5800609566976148
 -0.0753593971804983  0.1172149994348285  0.5856605644556846
  0.6994671141592295 -0.0562359643106675  0.5958256029657932
  0.6759901631472838  0.0610993183986620  0.5484581696558597
  0.6919354671144605  0.7801743565858105  0.5510003606308530
 -0.0850028193202031  0.9279087493385583  0.5400289369708650
  0.8450919157247571  0.3683797230860011  0.4912038974189345
  0.2773243563862494  0.9115598736896262  0.5097930665206826
  0.3609001517128200  0.5438807630820361  0.4345451730468922
  0.4665908708029034  0.4098633863461572  0.5657245706791926
  0.8292973933475052  0.8698281136671384  0.4478143113890020
  0.7800640198792151  0.9281695149540123  0.5535566051299223
  0.3516533882028733  0.4194356055825180  0.4997849374141781
 
  0.00000000E+00  0.00000000E+00  0.00000000E+00
  0.00000000E+00  0.00000000E+00  0.00000000E+00
  0.00000000E+00  0.00000000E+00  0.00000000E+00
  0.00000000E+00  0.00000000E+00  0.00000000E+00
  0.00000000E+00  0.00000000E+00  0.00000000E+00
  0.00000000E+00  0.00000000E+00  0.00000000E+00
  0.00000000E+00  0.00000000E+00  0.00000000E+00
  0.00000000E+00  0.00000000E+00  0.00000000E+00
  0.00000000E+00  0.00000000E+00  0.00000000E+00
  0.00000000E+00  0.00000000E+00  0.00000000E+00
  0.00000000E+00  0.00000000E+00  0.00000000E+00
  0.00000000E+00  0.00000000E+00  0.00000000E+00
  0.00000000E+00  0.00000000E+00  0.00000000E+00
  0.00000000E+00  0.00000000E+00  0.00000000E+00
  0.00000000E+00  0.00000000E+00  0.00000000E+00
  0.00000000E+00  0.00000000E+00  0.00000000E+00
  0.00000000E+00  0.00000000E+00  0.00000000E+00
  0.00000000E+00  0.00000000E+00  0.00000000E+00
  0.00000000E+00  0.00000000E+00  0.00000000E+00
  0.00000000E+00  0.00000000E+00  0.00000000E+00
  0.00000000E+00  0.00000000E+00  0.00000000E+00
  0.00000000E+00  0.00000000E+00  0.00000000E+00
  0.00000000E+00  0.00000000E+00  0.00000000E+00
  0.00000000E+00  0.00000000E+00  0.00000000E+00
  0.00000000E+00  0.00000000E+00  0.00000000E+00
  0.00000000E+00  0.00000000E+00  0.00000000E+00
  0.00000000E+00  0.00000000E+00  0.00000000E+00
  0.00000000E+00  0.00000000E+00  0.00000000E+00
  0.00000000E+00  0.00000000E+00  0.00000000E+00
  0.00000000E+00  0.00000000E+00  0.00000000E+00
  0.00000000E+00  0.00000000E+00  0.00000000E+00
  0.00000000E+00  0.00000000E+00  0.00000000E+00
  0.00000000E+00  0.00000000E+00  0.00000000E+00
  0.00000000E+00  0.00000000E+00  0.00000000E+00
  0.00000000E+00  0.00000000E+00  0.00000000E+00
  0.00000000E+00  0.00000000E+00  0.00000000E+00
  0.00000000E+00  0.00000000E+00  0.00000000E+00
  0.00000000E+00  0.00000000E+00  0.00000000E+00
  0.00000000E+00  0.00000000E+00  0.00000000E+00
  0.00000000E+00  0.00000000E+00  0.00000000E+00
  0.00000000E+00  0.00000000E+00  0.00000000E+00
  0.00000000E+00  0.00000000E+00  0.00000000E+00
  0.00000000E+00  0.00000000E+00  0.00000000E+00
  0.00000000E+00  0.00000000E+00  0.00000000E+00
  0.00000000E+00  0.00000000E+00  0.00000000E+00
  0.00000000E+00  0.00000000E+00  0.00000000E+00
  0.00000000E+00  0.00000000E+00  0.00000000E+00
