POSCAR_PEA2MA5Pb6I19_100                
   1.00000000000000     
     6.2219271840569039    0.0000000000000000    0.0000000000000000
     0.0000000000000000    6.2329331991539902    0.0000000000000000
     0.0000000000000000    0.0000000000000000   73.8851307603000009
   C    H    I    N    Pb
    20    48    16     6     5
Direct
  0.9195114012174557  0.9694178514694715  0.3763185153328221
  0.9293784735076767  0.9939816076112895  0.4568607737111048
  0.9177460805799368  0.8527327709000311  0.5419210953903988
  0.9277678776833891  0.8926527052046578  0.6240835965759194
  0.0190910844567149  0.0696462541194512  0.2176290875447942
  0.8275237461174331  0.1421503065916632  0.2253634276230096
  0.8029184891062089  0.1436828112158670  0.2441628516725058
  0.9701458648291673  0.0739804937419936  0.2554189941064841
  0.1624134060618839  0.0023870479887252  0.2475373158914498
  0.1867554640184827 -0.0003413777596912  0.2287680364530621
  0.9428603490776499  0.0672822604896441  0.2757006558621530
  0.9133168177885439  0.8362295830373641  0.2818639536446713
  0.0426820720569135  0.7925597864175161  0.7823890145048453
  0.8507191577601776  0.7184305702763658  0.7748286664810602
  0.8236832886753376  0.7166469716543498  0.7560570057110434
  0.9888325060008968  0.7878625089619333  0.7446482445791132
  0.1814596959243339  0.8611801004570410  0.7523530635217203
  0.2082779945165549  0.8640311520113604  0.7710942105778256
  0.9587556069959767  0.7946719727383280  0.7243983213189354
  0.9212559090850674  0.0250044493785706  0.7183530931078381
  0.7656990551813351  0.6744470194859234  0.3697775399891816
  0.9451973530999394  0.6542438449396528  0.3864650494132763
  0.0322859735569193  0.6766684748505274  0.3651466749782120
  0.8027322748160920  0.0123718834830525  0.3868798150934118
  0.0823416271388058  0.0175856174139051  0.3804174849100844
  0.8757102817252167  0.0449642079828948  0.3634000779158047
  0.7357645429874895  0.7132137965126144  0.4586465047674925
  0.9571695013687339  0.7025515147265667  0.4714802086127854
  0.9751996964193353  0.6716904121799427  0.4489874008144577
  0.8479627279782518  0.0769001970192055  0.4680530480117983
  0.1025470801051153  0.0286461787912370  0.4570866051355283
  0.8592442830187923  0.0418368946014422  0.4438209058405764
  0.1183058977979724  0.1293672224695627  0.5425809059860081
  0.8783969650374053  0.1664625848122598  0.5522997976443776
  0.8998827295773789  0.1593055152459017  0.5296681816159911
  0.9820397331925262  0.7883553083769516  0.5546643095410622
  0.7440325972735712  0.8227815154811030  0.5409994016426111
  0.0011291635680849  0.7808285662829662  0.5302984336673716
  0.0866844239967484  0.1852361027866455  0.6305117113324171
  0.8203729017835140  0.1880290208002875  0.6351843130157538
  0.9072639463059547  0.2077518339076935  0.6138378631047023
  0.9695360133996379  0.8170527524206622  0.6370464533425865
  0.7644478843278784  0.8469803460221687  0.6199184396882400
  0.0445325686135454  0.8471601842163585  0.6135950274429161
  0.0380056930078271  0.0677539689911562  0.2029166318004524
  0.6960784654403652  0.1982358030993459  0.2167406286692542
  0.6525722653371578  0.2006695675895043  0.2502006175477730
  0.2943422085373830  0.9478357359881093  0.2562378769476740
  0.3373092974226796  0.9425028127869949  0.2228317650944278
  0.8026313540171394  0.1645504439741532  0.2798179482142331
  0.0864564957251463  0.1364374276303343  0.2823432438755595
  0.0510261645635571  0.7347349769744318  0.2780482402110169
  0.7653775883188561  0.7637451187424691  0.2764381143439000
  0.8868667100504584  0.6657999529306029  0.3067277065566151
  0.7613626710345381  0.9028068831161417  0.3070903165576226
  0.0316448556216549  0.8906989688052414  0.3084238602827386
  0.0635124558847011  0.7945649639467407  0.7970807264282020
  0.7208922705675567  0.6612758603142720  0.7835767351445897
  0.6730239909908743  0.6584128943958377  0.7501545868424577
  0.3116576178597466  0.9169791626764556  0.7435222685407411
  0.3591378173086001  0.9223843164047881  0.7768947485784159
  0.8210985869443445  0.6933215081210572  0.7203584788286029
  0.1036186219827518  0.7304279153480595  0.7176080787542878
  0.0562094112380368  0.1304604164253932  0.7221140224934272
  0.7717387095849416  0.0926163645860817  0.7239135039023902
  0.8876813174361441  0.1956970053028182  0.6935707814525615
  0.7686853772961184  0.9553786059737900  0.6932130252744444
  0.0384385962179605  0.9748272523895581  0.6917062197154039
  0.9093880872555189  0.3606881450474713  0.3304203133993950
  0.9290548925646999  0.4425515180844231  0.4162455213265579
  0.9254156603692355  0.4202747588730006  0.5001635841596500
  0.9197440679241902  0.4157563007513098  0.5840382024597656
  0.9124528195163403  0.5001434276136814  0.6697225208824644
  0.3972165164146198  0.9013153013267369  0.3299946315016385
  0.4273567501584328  0.9234372363759039  0.4154032361983338
  0.4248257764304961  0.9244425239169518  0.4999999347411195
  0.4193726941210798  0.9336718152096113  0.5844448277070740
  0.4023709572583845  0.9594749536162663  0.6703323256186384
  0.4247697862847206  0.4540508755956523  0.2849033988162335
  0.4196141851512211  0.4295988193931611  0.3710885950034610
  0.4126528351071402  0.4456854484998214  0.4572660633297088
  0.4384373741768945  0.4050799508263440  0.5429614892562131
  0.4286221865839773  0.4314252130230284  0.6291045120656489
  0.4360834658201247  0.4076893689916617  0.7152917105273239
  0.9155649953949875  0.7311283213999407  0.3740864409983617
  0.8979519635143479  0.7579523651352149  0.4591557393001812
  0.9553090321244988  0.0893872539765724  0.5416082032564337
  0.9357555639069954  0.1308947026291266  0.6262415037901650
  0.8969141605614505  0.8242931983989310  0.3021399321634992
  0.9024529136120463  0.0373618602371792  0.6980954383070520
  0.4101273525257522  0.4026186662971800  0.3256937920598136
  0.4285665734335440  0.4190134735564712  0.4138994539044903
  0.4254593256799339  0.4248926921701681  0.5001383669952264
  0.4201804777199791  0.4385363655339224  0.5862450458408198
  0.4133389202195544  0.4582784115519625  0.6745030172382390
 
  0.00000000E+00  0.00000000E+00  0.00000000E+00
  0.00000000E+00  0.00000000E+00  0.00000000E+00
  0.00000000E+00  0.00000000E+00  0.00000000E+00
  0.00000000E+00  0.00000000E+00  0.00000000E+00
  0.00000000E+00  0.00000000E+00  0.00000000E+00
  0.00000000E+00  0.00000000E+00  0.00000000E+00
  0.00000000E+00  0.00000000E+00  0.00000000E+00
  0.00000000E+00  0.00000000E+00  0.00000000E+00
  0.00000000E+00  0.00000000E+00  0.00000000E+00
  0.00000000E+00  0.00000000E+00  0.00000000E+00
  0.00000000E+00  0.00000000E+00  0.00000000E+00
  0.00000000E+00  0.00000000E+00  0.00000000E+00
  0.00000000E+00  0.00000000E+00  0.00000000E+00
  0.00000000E+00  0.00000000E+00  0.00000000E+00
  0.00000000E+00  0.00000000E+00  0.00000000E+00
  0.00000000E+00  0.00000000E+00  0.00000000E+00
  0.00000000E+00  0.00000000E+00  0.00000000E+00
  0.00000000E+00  0.00000000E+00  0.00000000E+00
  0.00000000E+00  0.00000000E+00  0.00000000E+00
  0.00000000E+00  0.00000000E+00  0.00000000E+00
  0.00000000E+00  0.00000000E+00  0.00000000E+00
  0.00000000E+00  0.00000000E+00  0.00000000E+00
  0.00000000E+00  0.00000000E+00  0.00000000E+00
  0.00000000E+00  0.00000000E+00  0.00000000E+00
  0.00000000E+00  0.00000000E+00  0.00000000E+00
  0.00000000E+00  0.00000000E+00  0.00000000E+00
  0.00000000E+00  0.00000000E+00  0.00000000E+00
  0.00000000E+00  0.00000000E+00  0.00000000E+00
  0.00000000E+00  0.00000000E+00  0.00000000E+00
  0.00000000E+00  0.00000000E+00  0.00000000E+00
  0.00000000E+00  0.00000000E+00  0.00000000E+00
  0.00000000E+00  0.00000000E+00  0.00000000E+00
  0.00000000E+00  0.00000000E+00  0.00000000E+00
  0.00000000E+00  0.00000000E+00  0.00000000E+00
  0.00000000E+00  0.00000000E+00  0.00000000E+00
  0.00000000E+00  0.00000000E+00  0.00000000E+00
  0.00000000E+00  0.00000000E+00  0.00000000E+00
  0.00000000E+00  0.00000000E+00  0.00000000E+00
  0.00000000E+00  0.00000000E+00  0.00000000E+00
  0.00000000E+00  0.00000000E+00  0.00000000E+00
  0.00000000E+00  0.00000000E+00  0.00000000E+00
  0.00000000E+00  0.00000000E+00  0.00000000E+00
  0.00000000E+00  0.00000000E+00  0.00000000E+00
  0.00000000E+00  0.00000000E+00  0.00000000E+00
  0.00000000E+00  0.00000000E+00  0.00000000E+00
  0.00000000E+00  0.00000000E+00  0.00000000E+00
  0.00000000E+00  0.00000000E+00  0.00000000E+00
  0.00000000E+00  0.00000000E+00  0.00000000E+00
  0.00000000E+00  0.00000000E+00  0.00000000E+00
  0.00000000E+00  0.00000000E+00  0.00000000E+00
  0.00000000E+00  0.00000000E+00  0.00000000E+00
  0.00000000E+00  0.00000000E+00  0.00000000E+00
  0.00000000E+00  0.00000000E+00  0.00000000E+00
  0.00000000E+00  0.00000000E+00  0.00000000E+00
  0.00000000E+00  0.00000000E+00  0.00000000E+00
  0.00000000E+00  0.00000000E+00  0.00000000E+00
  0.00000000E+00  0.00000000E+00  0.00000000E+00
  0.00000000E+00  0.00000000E+00  0.00000000E+00
  0.00000000E+00  0.00000000E+00  0.00000000E+00
  0.00000000E+00  0.00000000E+00  0.00000000E+00
  0.00000000E+00  0.00000000E+00  0.00000000E+00
  0.00000000E+00  0.00000000E+00  0.00000000E+00
  0.00000000E+00  0.00000000E+00  0.00000000E+00
  0.00000000E+00  0.00000000E+00  0.00000000E+00
  0.00000000E+00  0.00000000E+00  0.00000000E+00
  0.00000000E+00  0.00000000E+00  0.00000000E+00
  0.00000000E+00  0.00000000E+00  0.00000000E+00
  0.00000000E+00  0.00000000E+00  0.00000000E+00
  0.00000000E+00  0.00000000E+00  0.00000000E+00
  0.00000000E+00  0.00000000E+00  0.00000000E+00
  0.00000000E+00  0.00000000E+00  0.00000000E+00
  0.00000000E+00  0.00000000E+00  0.00000000E+00
  0.00000000E+00  0.00000000E+00  0.00000000E+00
  0.00000000E+00  0.00000000E+00  0.00000000E+00
  0.00000000E+00  0.00000000E+00  0.00000000E+00
  0.00000000E+00  0.00000000E+00  0.00000000E+00
  0.00000000E+00  0.00000000E+00  0.00000000E+00
  0.00000000E+00  0.00000000E+00  0.00000000E+00
  0.00000000E+00  0.00000000E+00  0.00000000E+00
  0.00000000E+00  0.00000000E+00  0.00000000E+00
  0.00000000E+00  0.00000000E+00  0.00000000E+00
  0.00000000E+00  0.00000000E+00  0.00000000E+00
  0.00000000E+00  0.00000000E+00  0.00000000E+00
  0.00000000E+00  0.00000000E+00  0.00000000E+00
  0.00000000E+00  0.00000000E+00  0.00000000E+00
  0.00000000E+00  0.00000000E+00  0.00000000E+00
  0.00000000E+00  0.00000000E+00  0.00000000E+00
  0.00000000E+00  0.00000000E+00  0.00000000E+00
  0.00000000E+00  0.00000000E+00  0.00000000E+00
  0.00000000E+00  0.00000000E+00  0.00000000E+00
  0.00000000E+00  0.00000000E+00  0.00000000E+00
  0.00000000E+00  0.00000000E+00  0.00000000E+00
  0.00000000E+00  0.00000000E+00  0.00000000E+00
  0.00000000E+00  0.00000000E+00  0.00000000E+00
  0.00000000E+00  0.00000000E+00  0.00000000E+00
