POSCAR_PEA2MA5Pb6I19_100                
   1.00000000000000     
     6.2352717343768544    0.0000000000000000    0.0000000000000000
     0.0000000000000000    6.2410061744272491    0.0000000000000000
     0.0000000000000000    0.0000000000000000   79.6159265290000064
   C    H    I    N    Pb
    21    54    19     7     6
Direct
  0.9193954094236754 -0.0307516299407107  0.3454425956074949
  0.9294062385904995 -0.0051882213820078  0.4200610202817973
  0.9228337856580638  0.8577171996592678  0.5014881485343001
  0.9175625550748969  0.8501845885433599  0.5785553173088034
  0.9285525872942341  0.8930135395079020  0.6547914905633765
  0.0182677347831103  0.0686088588656547  0.1980976533721099
  0.8269831932153757  0.1407750097700281  0.2052616809605380
  0.8024511675310813  0.1428525940122823  0.2227089154155424
  0.9694431008317320  0.0738900682867363  0.2331673443724120
  0.1615129378721012  0.0028476866280326  0.2258666492019103
  0.1858039531325614 -0.0004633778918681  0.2084472605077532
  0.9420466200394657  0.0670091579003516  0.2519898290656923
  0.9137472107760580  0.8359174894505299  0.2576750726641753
  0.0419726974942969  0.7936718587951220  0.8017546212596586
  0.8502905762724056  0.7198422529491233  0.7947554738536362
  0.8233820599543699  0.7175260471830046  0.7773276255208541
  0.9882878426477639  0.7880145995135346  0.7667331191436865
  0.1807079969489035  0.8608220777664184  0.7738686141464097
  0.2074149486655536  0.8642400481701575  0.7912665826143650
  0.9581309596725305  0.7949818364660795  0.7479384688152890
  0.9217537009493406  0.0253588005691477  0.7423591747886893
  0.7662221851544245  0.6749855995823761  0.3392194423814621
  0.9475085998026124  0.6531687894613050  0.3545329438258430
  0.0314793229195706  0.6789292164310001  0.3346861309026709
  0.8040547371347307  0.0101149282784882  0.3553838372703544
  0.0822070734461827  0.0174328893512038  0.3491561325539814
  0.8737075483792685  0.0463823110614184  0.3335655910603548
  0.7369068565035998  0.7140751689307161  0.4217925509452358
  0.9582456620973764  0.7037353423738895  0.4336425953125846
  0.9752999999852291  0.6729679973857493  0.4127555216279876
  0.8492151341706683  0.0775765547649412  0.4304997820352811
  0.1021409699737495  0.0297294831302691  0.4201455457377247
  0.8579978162275026  0.0424353237550834  0.4080068001540210
  0.1169654140692978  0.1353215677642191  0.4983780818823667
  0.8941099364004482  0.1790585527961785  0.5094582842995535
  0.8805257751598207  0.1512936821225381  0.4884901076205630
  0.0075508915887610  0.8078293581746188  0.5129449367654269
  0.7501947925240784  0.8256521298055678  0.5026617599015439
 -0.0113085319644017  0.7746846154756583  0.4904624382817199
  0.1168026393294414  0.1268716522992697  0.5792349325611091
  0.8769253102149139  0.1633159080773781  0.5881845972083014
  0.8997463135958523  0.1562036922455966  0.5671514811414485
 -0.0171952846103052  0.7857304735638347  0.5903391646186158
  0.7442726032302971  0.8197867795949152  0.5777787204876151
  0.0004714189701196  0.7791678860540033  0.5677202024774202
  0.0866749188046688  0.1850641560930515  0.6608828687182666
  0.8216146342461720  0.1861977931658853  0.6654325170873840
  0.9056867237490978  0.2088878767487031  0.6455637580581504
 -0.0280078431031347  0.8160618062406162  0.6667261329862130
  0.7653104811295813  0.8472250500695795  0.6510072475797588
  0.0440886701161910  0.8493959210751461  0.6449346944280505
  0.0370795666703419  0.0661604369921870  0.1844455246185807
  0.6956801307344748  0.1961897947651247  0.1972494196055188
  0.6523059580756243  0.1995350842295194  0.2282993080824463
  0.2932808865898295 -0.0510390052978954  0.2339483344023596
  0.3361195808884204 -0.0573564231830526  0.2029506867888058
  0.8015876326384976  0.1633773847319666  0.2558066346301222
  0.0848633019982802  0.1368303873394948  0.2581678548408607
  0.0516438329099756  0.7353860486627621  0.2541121158866316
  0.7665225487653808  0.7629726624970488  0.2526216584340855
  0.8879515284709916  0.6646807141671242  0.2807024491357834
  0.7619703759518979  0.9008823735725808  0.2811016961389140
  0.0315403615221906  0.8897315622339038  0.2823359176026913
  0.0626608069567557  0.7962138458581567  0.8153908443773835
  0.7206103673505817  0.6633423965602380  0.8028784282744497
  0.6729385278560289  0.6595711982921150  0.7718644697514326
  0.3107543150463200  0.9159777034747543  0.7656702190242245
  0.3580400375415792  0.9223601368789268  0.7966354687088478
  0.8202858274754585  0.6944279902121654  0.7441930221867847
  0.1022859038822205  0.7301302781562454  0.7416262901689766
  0.0568301181911825  0.1299556624371421  0.7458761799533294
  0.7728505452472572  0.0933490516251302  0.7475305823135135
  0.8889118290020332  0.1968229611100204  0.7194040644388254
  0.7694960122441529  0.9572619447472746  0.7190072409006907
  0.0385738570974851 -0.0241723727300661  0.7176225696449473
  0.9102201113744418  0.3600882434045782  0.3027131535703262
  0.9295220256625545  0.4435143720992975  0.3822885726512985
  0.9260392051698012  0.4272070458464302  0.4605656544921434
  0.9174048195583792  0.3951201628770568  0.5390348000198025
  0.9196338967198617  0.4148391096099667  0.6177881645355100
  0.9130821155591918  0.5008169911475294  0.6972603806487346
  0.3978335553334302  0.9009713677725687  0.3024237091180570
  0.4266249676593330  0.9243874014647521  0.3816663722118457
  0.4265227355135124  0.9263739275128297  0.4603745258543932
  0.4111210252349813  0.9217266171520303  0.5403829505932845
  0.4207677531664684  0.9327806523476205  0.6180111387301651
  0.4035004064455136  0.9599071990984387  0.6977131471543537
  0.4245545674035892  0.4545305928872416  0.2605458095115383
  0.4206523812759856  0.4292773865650598  0.3405030354047298
  0.4136651408378617  0.4461372466757647  0.4204595258107212
  0.4393589684112047  0.4053872482540680  0.5000197058732410
  0.4368812037148495  0.4045156419769459  0.5795425080381060
  0.4281663572845386  0.4319946387680949  0.6594927180790059
  0.4358109546900794  0.4072767896087589  0.7394682078906635
  0.9161273049580957  0.7314985578168554  0.3431405699103297
  0.8986279263220833  0.7589797776375727  0.4222152353643981
  0.9548813803230617  0.0932803282597254  0.4992609400532457
  0.9543732602686682  0.0866912060962922  0.5782876657572211
  0.9357821180544681  0.1307853172139047  0.6569913970428787
  0.8974411499554942  0.8231575863194283  0.2764862571455360
  0.9031600706010462  0.0385041307623586  0.7235639525890935
  0.4109153297978928  0.4023336962497853  0.2984134636524896
  0.4291020168375047  0.4199498740655656  0.3802213475450619
  0.4257555668269578  0.4262849113261206  0.4601718119234950
  0.4184293092110964  0.4276871357297807  0.5399066807897848
  0.4199967650468351  0.4377360201102521  0.6197215357743275
  0.4139096617194552  0.4586543292468970  0.7015999407803736
 
  0.00000000E+00  0.00000000E+00  0.00000000E+00
  0.00000000E+00  0.00000000E+00  0.00000000E+00
  0.00000000E+00  0.00000000E+00  0.00000000E+00
  0.00000000E+00  0.00000000E+00  0.00000000E+00
  0.00000000E+00  0.00000000E+00  0.00000000E+00
  0.00000000E+00  0.00000000E+00  0.00000000E+00
  0.00000000E+00  0.00000000E+00  0.00000000E+00
  0.00000000E+00  0.00000000E+00  0.00000000E+00
  0.00000000E+00  0.00000000E+00  0.00000000E+00
  0.00000000E+00  0.00000000E+00  0.00000000E+00
  0.00000000E+00  0.00000000E+00  0.00000000E+00
  0.00000000E+00  0.00000000E+00  0.00000000E+00
  0.00000000E+00  0.00000000E+00  0.00000000E+00
  0.00000000E+00  0.00000000E+00  0.00000000E+00
  0.00000000E+00  0.00000000E+00  0.00000000E+00
  0.00000000E+00  0.00000000E+00  0.00000000E+00
  0.00000000E+00  0.00000000E+00  0.00000000E+00
  0.00000000E+00  0.00000000E+00  0.00000000E+00
  0.00000000E+00  0.00000000E+00  0.00000000E+00
  0.00000000E+00  0.00000000E+00  0.00000000E+00
  0.00000000E+00  0.00000000E+00  0.00000000E+00
  0.00000000E+00  0.00000000E+00  0.00000000E+00
  0.00000000E+00  0.00000000E+00  0.00000000E+00
  0.00000000E+00  0.00000000E+00  0.00000000E+00
  0.00000000E+00  0.00000000E+00  0.00000000E+00
  0.00000000E+00  0.00000000E+00  0.00000000E+00
  0.00000000E+00  0.00000000E+00  0.00000000E+00
  0.00000000E+00  0.00000000E+00  0.00000000E+00
  0.00000000E+00  0.00000000E+00  0.00000000E+00
  0.00000000E+00  0.00000000E+00  0.00000000E+00
  0.00000000E+00  0.00000000E+00  0.00000000E+00
  0.00000000E+00  0.00000000E+00  0.00000000E+00
  0.00000000E+00  0.00000000E+00  0.00000000E+00
  0.00000000E+00  0.00000000E+00  0.00000000E+00
  0.00000000E+00  0.00000000E+00  0.00000000E+00
  0.00000000E+00  0.00000000E+00  0.00000000E+00
  0.00000000E+00  0.00000000E+00  0.00000000E+00
  0.00000000E+00  0.00000000E+00  0.00000000E+00
  0.00000000E+00  0.00000000E+00  0.00000000E+00
  0.00000000E+00  0.00000000E+00  0.00000000E+00
  0.00000000E+00  0.00000000E+00  0.00000000E+00
  0.00000000E+00  0.00000000E+00  0.00000000E+00
  0.00000000E+00  0.00000000E+00  0.00000000E+00
  0.00000000E+00  0.00000000E+00  0.00000000E+00
  0.00000000E+00  0.00000000E+00  0.00000000E+00
  0.00000000E+00  0.00000000E+00  0.00000000E+00
  0.00000000E+00  0.00000000E+00  0.00000000E+00
  0.00000000E+00  0.00000000E+00  0.00000000E+00
  0.00000000E+00  0.00000000E+00  0.00000000E+00
  0.00000000E+00  0.00000000E+00  0.00000000E+00
  0.00000000E+00  0.00000000E+00  0.00000000E+00
  0.00000000E+00  0.00000000E+00  0.00000000E+00
  0.00000000E+00  0.00000000E+00  0.00000000E+00
  0.00000000E+00  0.00000000E+00  0.00000000E+00
  0.00000000E+00  0.00000000E+00  0.00000000E+00
  0.00000000E+00  0.00000000E+00  0.00000000E+00
  0.00000000E+00  0.00000000E+00  0.00000000E+00
  0.00000000E+00  0.00000000E+00  0.00000000E+00
  0.00000000E+00  0.00000000E+00  0.00000000E+00
  0.00000000E+00  0.00000000E+00  0.00000000E+00
  0.00000000E+00  0.00000000E+00  0.00000000E+00
  0.00000000E+00  0.00000000E+00  0.00000000E+00
  0.00000000E+00  0.00000000E+00  0.00000000E+00
  0.00000000E+00  0.00000000E+00  0.00000000E+00
  0.00000000E+00  0.00000000E+00  0.00000000E+00
  0.00000000E+00  0.00000000E+00  0.00000000E+00
  0.00000000E+00  0.00000000E+00  0.00000000E+00
  0.00000000E+00  0.00000000E+00  0.00000000E+00
  0.00000000E+00  0.00000000E+00  0.00000000E+00
  0.00000000E+00  0.00000000E+00  0.00000000E+00
  0.00000000E+00  0.00000000E+00  0.00000000E+00
  0.00000000E+00  0.00000000E+00  0.00000000E+00
  0.00000000E+00  0.00000000E+00  0.00000000E+00
  0.00000000E+00  0.00000000E+00  0.00000000E+00
  0.00000000E+00  0.00000000E+00  0.00000000E+00
  0.00000000E+00  0.00000000E+00  0.00000000E+00
  0.00000000E+00  0.00000000E+00  0.00000000E+00
  0.00000000E+00  0.00000000E+00  0.00000000E+00
  0.00000000E+00  0.00000000E+00  0.00000000E+00
  0.00000000E+00  0.00000000E+00  0.00000000E+00
  0.00000000E+00  0.00000000E+00  0.00000000E+00
  0.00000000E+00  0.00000000E+00  0.00000000E+00
  0.00000000E+00  0.00000000E+00  0.00000000E+00
  0.00000000E+00  0.00000000E+00  0.00000000E+00
  0.00000000E+00  0.00000000E+00  0.00000000E+00
  0.00000000E+00  0.00000000E+00  0.00000000E+00
  0.00000000E+00  0.00000000E+00  0.00000000E+00
  0.00000000E+00  0.00000000E+00  0.00000000E+00
  0.00000000E+00  0.00000000E+00  0.00000000E+00
  0.00000000E+00  0.00000000E+00  0.00000000E+00
  0.00000000E+00  0.00000000E+00  0.00000000E+00
  0.00000000E+00  0.00000000E+00  0.00000000E+00
  0.00000000E+00  0.00000000E+00  0.00000000E+00
  0.00000000E+00  0.00000000E+00  0.00000000E+00
  0.00000000E+00  0.00000000E+00  0.00000000E+00
  0.00000000E+00  0.00000000E+00  0.00000000E+00
  0.00000000E+00  0.00000000E+00  0.00000000E+00
  0.00000000E+00  0.00000000E+00  0.00000000E+00
  0.00000000E+00  0.00000000E+00  0.00000000E+00
  0.00000000E+00  0.00000000E+00  0.00000000E+00
  0.00000000E+00  0.00000000E+00  0.00000000E+00
  0.00000000E+00  0.00000000E+00  0.00000000E+00
  0.00000000E+00  0.00000000E+00  0.00000000E+00
  0.00000000E+00  0.00000000E+00  0.00000000E+00
  0.00000000E+00  0.00000000E+00  0.00000000E+00
  0.00000000E+00  0.00000000E+00  0.00000000E+00
  0.00000000E+00  0.00000000E+00  0.00000000E+00
