POSCAR_PEA2MA5Pb6I19_100                
   1.00000000000000     
     6.1780035955387387    0.0000000000000000    0.0000000000000000
     0.0000000000000000    6.2298104362023095    0.0000000000000000
     0.0000000000000000    0.0000000000000000   54.6520563585999994
   C    H    I    N    Pb
    17    30     7     3     2
Direct
  0.9151065943345714  0.8825165180848984  0.4966282024117235
  0.0247883758714673  0.0756152540484269  0.2916005261223896
  0.8334627120368037  0.1527011853179749  0.3020205166833909
  0.8095024457167808  0.1574608822008179  0.3274331990991178
  0.9771840513475912  0.0863776775011143  0.3426599695377086
  0.1694305104079930  0.0106827213270324  0.3320560320006115
  0.1931382694244105  0.0047481419715612  0.3066865455088415
  0.9491174660710533  0.0783715364809420  0.3700582784102743
  0.9101068238137796  0.8469426269581150  0.3777463745403102
  0.0463090304190594  0.7879778110488116  0.7067350364117964
  0.8543984243106190  0.7105567585381745  0.6964819477849866
  0.8277355616116047  0.7080964781294133  0.6711010132421636
  0.9932150066525851  0.7819321299656203  0.6557276746936871
  0.1857794781526625  0.8585895170779945  0.6661665931412988
  0.2122500056482010  0.8620527373898142  0.6915081549665764
  0.9627393566555811  0.7893204263658978  0.6283553515903697
  0.9177746200218722  0.0191920492174074  0.6204842470054809
  0.0894983606410206  0.1662169261826073  0.5058662559260038
  0.8303002596975633  0.1664620631291027  0.5157784246106270
  0.8868621718957496  0.2065930459345084  0.4862609317638474
  0.9614902143344762  0.7940513617601588  0.5131986677885934
  0.7473316033268711  0.8444009869786537  0.4915197475458042
  0.0267204248040512  0.8433019161781617  0.4816114491880980
  0.0429291526621723  0.0706234428723716  0.2717058133992927
  0.7016288411545815  0.2093577181699514  0.2903276233534400
  0.6591530590290339  0.2173582650956131  0.3355907922311535
  0.3013251034204778  0.9548048972424696  0.3438669668445273
  0.3434471714538346  0.9440424439727516  0.2986840143697389
  0.8116312105285123  0.1801804125433277  0.3757970623803376
  0.0962701801364967  0.1402370951240621  0.3791942286373089
  0.0442927604517117  0.7413047101234038  0.3721640196135646
  0.7579466794239125  0.7821976445766906  0.3703213557989464
  0.8785265695034651  0.6692592731609409  0.4106296353538554
  0.7615728680433597  0.9104785537463498  0.4121569512605014
  0.0333600467517350  0.8880915033696208  0.4136785292426988
  0.0668118779321469  0.7905728946337693  0.7266066026015273
  0.7244002759054161  0.6514985778525380  0.7082819792032783
  0.6771225346235282  0.6474908659362462  0.6630760305532478
  0.3159645124561855  0.9166742877248694  0.6542511245240654
  0.3630008457090212  0.9229463362946688  0.6993869456220232
  0.8272478107862103  0.6841556426063485  0.6227964480443854
  0.1104926707617574  0.7302822627417385  0.6191092960010507
  0.0507001206840374  0.1282069442063929  0.6256130682118227
  0.7655961034680815  0.0818848608744605  0.6281313244347050
  0.8780396357000541  0.1924833621618389  0.5873095473589512
  0.7646952113172538  0.9489304858955780  0.5865182051264167
  0.0352880037934931  0.9753369073991265  0.5843530168540521
  0.9053144055487146  0.3547763021989381  0.4418501074926674
  0.9078616068078095  0.5016977966360894  0.5559478366441601
  0.3991219288350483  0.9162768065562367  0.4425219958712892
  0.3997567209766253  0.9582044913737258  0.5535583541679798
  0.4244875857579993  0.4679999424270223  0.3830318149625774
  0.4202612988921458  0.4271244456912652  0.4992374024120078
  0.4346780120625838  0.3987921554287444  0.6152824327021252
  0.9313389443728392  0.1176930899397213  0.5016817652896162
  0.8947432474151401  0.8287158163347687  0.4051065582356720
  0.8973737819389098  0.0337637083304953  0.5931213076727407
  0.4060479567469630  0.4197320543471470  0.4386352193619101
  0.4086066221018374  0.4560171017702677  0.5597783470784397
 
  0.00000000E+00  0.00000000E+00  0.00000000E+00
  0.00000000E+00  0.00000000E+00  0.00000000E+00
  0.00000000E+00  0.00000000E+00  0.00000000E+00
  0.00000000E+00  0.00000000E+00  0.00000000E+00
  0.00000000E+00  0.00000000E+00  0.00000000E+00
  0.00000000E+00  0.00000000E+00  0.00000000E+00
  0.00000000E+00  0.00000000E+00  0.00000000E+00
  0.00000000E+00  0.00000000E+00  0.00000000E+00
  0.00000000E+00  0.00000000E+00  0.00000000E+00
  0.00000000E+00  0.00000000E+00  0.00000000E+00
  0.00000000E+00  0.00000000E+00  0.00000000E+00
  0.00000000E+00  0.00000000E+00  0.00000000E+00
  0.00000000E+00  0.00000000E+00  0.00000000E+00
  0.00000000E+00  0.00000000E+00  0.00000000E+00
  0.00000000E+00  0.00000000E+00  0.00000000E+00
  0.00000000E+00  0.00000000E+00  0.00000000E+00
  0.00000000E+00  0.00000000E+00  0.00000000E+00
  0.00000000E+00  0.00000000E+00  0.00000000E+00
  0.00000000E+00  0.00000000E+00  0.00000000E+00
  0.00000000E+00  0.00000000E+00  0.00000000E+00
  0.00000000E+00  0.00000000E+00  0.00000000E+00
  0.00000000E+00  0.00000000E+00  0.00000000E+00
  0.00000000E+00  0.00000000E+00  0.00000000E+00
  0.00000000E+00  0.00000000E+00  0.00000000E+00
  0.00000000E+00  0.00000000E+00  0.00000000E+00
  0.00000000E+00  0.00000000E+00  0.00000000E+00
  0.00000000E+00  0.00000000E+00  0.00000000E+00
  0.00000000E+00  0.00000000E+00  0.00000000E+00
  0.00000000E+00  0.00000000E+00  0.00000000E+00
  0.00000000E+00  0.00000000E+00  0.00000000E+00
  0.00000000E+00  0.00000000E+00  0.00000000E+00
  0.00000000E+00  0.00000000E+00  0.00000000E+00
  0.00000000E+00  0.00000000E+00  0.00000000E+00
  0.00000000E+00  0.00000000E+00  0.00000000E+00
  0.00000000E+00  0.00000000E+00  0.00000000E+00
  0.00000000E+00  0.00000000E+00  0.00000000E+00
  0.00000000E+00  0.00000000E+00  0.00000000E+00
  0.00000000E+00  0.00000000E+00  0.00000000E+00
  0.00000000E+00  0.00000000E+00  0.00000000E+00
  0.00000000E+00  0.00000000E+00  0.00000000E+00
  0.00000000E+00  0.00000000E+00  0.00000000E+00
  0.00000000E+00  0.00000000E+00  0.00000000E+00
  0.00000000E+00  0.00000000E+00  0.00000000E+00
  0.00000000E+00  0.00000000E+00  0.00000000E+00
  0.00000000E+00  0.00000000E+00  0.00000000E+00
  0.00000000E+00  0.00000000E+00  0.00000000E+00
  0.00000000E+00  0.00000000E+00  0.00000000E+00
  0.00000000E+00  0.00000000E+00  0.00000000E+00
  0.00000000E+00  0.00000000E+00  0.00000000E+00
  0.00000000E+00  0.00000000E+00  0.00000000E+00
  0.00000000E+00  0.00000000E+00  0.00000000E+00
  0.00000000E+00  0.00000000E+00  0.00000000E+00
  0.00000000E+00  0.00000000E+00  0.00000000E+00
  0.00000000E+00  0.00000000E+00  0.00000000E+00
  0.00000000E+00  0.00000000E+00  0.00000000E+00
  0.00000000E+00  0.00000000E+00  0.00000000E+00
  0.00000000E+00  0.00000000E+00  0.00000000E+00
  0.00000000E+00  0.00000000E+00  0.00000000E+00
  0.00000000E+00  0.00000000E+00  0.00000000E+00
