POSCAR_PEA2MA5Pb6I19_100                
   1.00000000000000     
     6.2125527635149798    0.0000000000000000    0.0000000000000000
     0.0000000000000000    6.2292218513102595    0.0000000000000000
     0.0000000000000000    0.0000000000000000   67.5198004622999974
   C    H    I    N    Pb
    19    42    13     5     4
Direct
  0.9179908354152357  0.9677745380738064  0.4108300900696544
  0.9180674023204423  0.8555720957743657  0.4995650714665447
  0.9254874719939730  0.8912240123133355  0.5891713291089996
  0.0212875752207459  0.0716043677386563  0.2379032847465507
  0.8300160134453103  0.1453350901006097  0.2463810458639591
  0.8054375065779196  0.1465806008933043  0.2669577569946009
  0.9724942508356986  0.0753563111350163  0.2792537518169235
  0.1644509665338022  0.0024299338964268  0.2706115350977722
  0.1887388001153810  0.0000478958636912  0.2500663164302583
  0.9452323937437113  0.0686449196060723  0.3014518350019711
  0.9119300366021573  0.8379263933511593  0.3081788585844061
  0.0444736163313446  0.7904132597869205  0.7620932094997201
  0.8527921726414888  0.7151862691810451  0.7538036579483529
  0.8257851017149306  0.7138170962638549  0.7332528752891054
  0.9907717259393306  0.7865626241531042  0.7207952567005377
  0.1831276114784488  0.8610298026716646  0.7292482259359288
  0.2098874919539407  0.8634079521883311  0.7497676850079787
  0.9607449500376969  0.7934308113852342  0.6986292346972115
  0.9197415334985662  0.0233317337791593  0.6920189353541482
  0.7652263673320822  0.6714150980352671  0.4038459031179401
  0.9422042056878414  0.6536289050362868  0.4223227674196681
  0.0332508802801914  0.6730713224199891  0.3991576533696833
  0.7975322405072138  0.0130511939979470  0.4219964572851785
  0.0796305898004769  0.0165764198556705  0.4156847199520172
  0.8788358807512391  0.0410749859933327  0.3964707116636239
  0.1216318873633104  0.1306279569644409  0.5001182013480010
  0.8842439644990956  0.1688904819443985  0.5112538449110439
  0.8998621866193401  0.1634369122558527  0.4864475689592861
  0.9813899346059254  0.7900395367325250  0.5135051226091304
  0.7438674344179793  0.8272050766869343  0.4984938491565442
  0.0016878986100409  0.7835637124243051  0.4868509971046393
  0.0855948273863527  0.1844227068423496  0.5958806439762742
  0.8175142858567639  0.1909357045788203  0.6003660456410054
  0.9109956065385137  0.2038494681773681  0.5771922024316541
  0.9626832132123356  0.8191750891747432  0.6036263677849313
  0.7626627433768234  0.8458646057845519  0.5843623382297383
  0.0449832406057008  0.8412243989534797  0.5780824067803975
  0.0401580738364865  0.0699849556549853  0.2218022367953956
  0.6987913582465760  0.2026985656436250  0.2369657878618909
  0.6553499842413890  0.2046165678162264  0.2735771323441509
  0.2962268440886950  0.9466977641613191  0.2801117497475665
  0.3390871465018542  0.9420696496190258  0.2435554162515341
  0.8064405103587984  0.1682071135139412  0.3059806299572453
  0.0902417858140819  0.1353887130774054  0.3087122767614954
  0.0482934163906087  0.7342912778716666  0.3040020962097117
  0.7626821583730862  0.7677533436682210  0.3022334730284869
  0.8835616907374318  0.6673690719272182  0.3353593872220470
  0.7601974192815332  0.9057429797865721  0.3357806915097485
  0.0306378071751387  0.8910493838512912  0.3372621634145320
  0.0652514590608817  0.7920677957022647  0.7781740982394512
  0.7231730350494078  0.6567500929122738  0.7633509021371834
  0.6753758658053336  0.6546030538035135  0.7267810627947697
  0.3132202690871415  0.9179369934663621  0.7196121021540943
  0.3605685499935058  0.9224534634474038  0.7561318301821816
  0.8244773892838649  0.6899805450122947  0.6941856072693756
  0.1068607969930997  0.7314257699431713  0.6912083810712270
  0.0534751655722434  0.1307448098811851  0.6961153013022727
  0.7691455712139289  0.0888458235385658  0.6981237983655734
  0.8840742351517726  0.1938926999003605  0.6649180338380348
  0.7669332631916959  0.9524427934005183  0.6645320759003167
  0.0367705249770751  0.9741003883145100  0.6628257790454838
  0.9075246540778804  0.3615882016903463  0.3610855675887952
  0.9231140840379336  0.4136453082096935  0.4536170603891236
  0.9207970834004495  0.4215411275301107  0.5452002575055983
  0.9114363873661099  0.4982594539611028  0.6388474944735180
  0.3954593037400558  0.9013010929655499  0.3612773358968205
  0.4167361549626295  0.9190942538481255  0.4542945071439086
  0.4189340504222105  0.9378240983868135  0.5454586641292741
  0.4004646396841516  0.9593287814934158  0.6389417100458081
  0.4246658307179914  0.4569595161005470  0.3113988671869007
  0.4187338574865804  0.4257778700702573  0.4056093557277258
  0.4390793161041631  0.4098570472737316  0.4998394938404366
  0.4276799348524474  0.4347366493646098  0.5941627012690485
  0.4360018736425371  0.4054496587628515  0.6885059197489930
  0.9145106629483978  0.7289515398338680  0.4086993263868628
  0.9578347604343309  0.0920177448213319  0.4993410243046537
  0.9353059194677127  0.1301271426819162  0.5909863544387745
  0.8951675546445322  0.8259273822682449  0.3303651962155660
  0.9002828385539060  0.0355617935603349  0.6698518344935371
  0.4081869221698811  0.4031688173969936  0.3560297227026275
  0.4232308635304793  0.4202981442880961  0.4526031151707399
  0.4214004570812321  0.4421447457965827  0.5471914638290605
  0.4123228181241682  0.4576638876685754  0.6438558584251458
 
  0.00000000E+00  0.00000000E+00  0.00000000E+00
  0.00000000E+00  0.00000000E+00  0.00000000E+00
  0.00000000E+00  0.00000000E+00  0.00000000E+00
  0.00000000E+00  0.00000000E+00  0.00000000E+00
  0.00000000E+00  0.00000000E+00  0.00000000E+00
  0.00000000E+00  0.00000000E+00  0.00000000E+00
  0.00000000E+00  0.00000000E+00  0.00000000E+00
  0.00000000E+00  0.00000000E+00  0.00000000E+00
  0.00000000E+00  0.00000000E+00  0.00000000E+00
  0.00000000E+00  0.00000000E+00  0.00000000E+00
  0.00000000E+00  0.00000000E+00  0.00000000E+00
  0.00000000E+00  0.00000000E+00  0.00000000E+00
  0.00000000E+00  0.00000000E+00  0.00000000E+00
  0.00000000E+00  0.00000000E+00  0.00000000E+00
  0.00000000E+00  0.00000000E+00  0.00000000E+00
  0.00000000E+00  0.00000000E+00  0.00000000E+00
  0.00000000E+00  0.00000000E+00  0.00000000E+00
  0.00000000E+00  0.00000000E+00  0.00000000E+00
  0.00000000E+00  0.00000000E+00  0.00000000E+00
  0.00000000E+00  0.00000000E+00  0.00000000E+00
  0.00000000E+00  0.00000000E+00  0.00000000E+00
  0.00000000E+00  0.00000000E+00  0.00000000E+00
  0.00000000E+00  0.00000000E+00  0.00000000E+00
  0.00000000E+00  0.00000000E+00  0.00000000E+00
  0.00000000E+00  0.00000000E+00  0.00000000E+00
  0.00000000E+00  0.00000000E+00  0.00000000E+00
  0.00000000E+00  0.00000000E+00  0.00000000E+00
  0.00000000E+00  0.00000000E+00  0.00000000E+00
  0.00000000E+00  0.00000000E+00  0.00000000E+00
  0.00000000E+00  0.00000000E+00  0.00000000E+00
  0.00000000E+00  0.00000000E+00  0.00000000E+00
  0.00000000E+00  0.00000000E+00  0.00000000E+00
  0.00000000E+00  0.00000000E+00  0.00000000E+00
  0.00000000E+00  0.00000000E+00  0.00000000E+00
  0.00000000E+00  0.00000000E+00  0.00000000E+00
  0.00000000E+00  0.00000000E+00  0.00000000E+00
  0.00000000E+00  0.00000000E+00  0.00000000E+00
  0.00000000E+00  0.00000000E+00  0.00000000E+00
  0.00000000E+00  0.00000000E+00  0.00000000E+00
  0.00000000E+00  0.00000000E+00  0.00000000E+00
  0.00000000E+00  0.00000000E+00  0.00000000E+00
  0.00000000E+00  0.00000000E+00  0.00000000E+00
  0.00000000E+00  0.00000000E+00  0.00000000E+00
  0.00000000E+00  0.00000000E+00  0.00000000E+00
  0.00000000E+00  0.00000000E+00  0.00000000E+00
  0.00000000E+00  0.00000000E+00  0.00000000E+00
  0.00000000E+00  0.00000000E+00  0.00000000E+00
  0.00000000E+00  0.00000000E+00  0.00000000E+00
  0.00000000E+00  0.00000000E+00  0.00000000E+00
  0.00000000E+00  0.00000000E+00  0.00000000E+00
  0.00000000E+00  0.00000000E+00  0.00000000E+00
  0.00000000E+00  0.00000000E+00  0.00000000E+00
  0.00000000E+00  0.00000000E+00  0.00000000E+00
  0.00000000E+00  0.00000000E+00  0.00000000E+00
  0.00000000E+00  0.00000000E+00  0.00000000E+00
  0.00000000E+00  0.00000000E+00  0.00000000E+00
  0.00000000E+00  0.00000000E+00  0.00000000E+00
  0.00000000E+00  0.00000000E+00  0.00000000E+00
  0.00000000E+00  0.00000000E+00  0.00000000E+00
  0.00000000E+00  0.00000000E+00  0.00000000E+00
  0.00000000E+00  0.00000000E+00  0.00000000E+00
  0.00000000E+00  0.00000000E+00  0.00000000E+00
  0.00000000E+00  0.00000000E+00  0.00000000E+00
  0.00000000E+00  0.00000000E+00  0.00000000E+00
  0.00000000E+00  0.00000000E+00  0.00000000E+00
  0.00000000E+00  0.00000000E+00  0.00000000E+00
  0.00000000E+00  0.00000000E+00  0.00000000E+00
  0.00000000E+00  0.00000000E+00  0.00000000E+00
  0.00000000E+00  0.00000000E+00  0.00000000E+00
  0.00000000E+00  0.00000000E+00  0.00000000E+00
  0.00000000E+00  0.00000000E+00  0.00000000E+00
  0.00000000E+00  0.00000000E+00  0.00000000E+00
  0.00000000E+00  0.00000000E+00  0.00000000E+00
  0.00000000E+00  0.00000000E+00  0.00000000E+00
  0.00000000E+00  0.00000000E+00  0.00000000E+00
  0.00000000E+00  0.00000000E+00  0.00000000E+00
  0.00000000E+00  0.00000000E+00  0.00000000E+00
  0.00000000E+00  0.00000000E+00  0.00000000E+00
  0.00000000E+00  0.00000000E+00  0.00000000E+00
  0.00000000E+00  0.00000000E+00  0.00000000E+00
  0.00000000E+00  0.00000000E+00  0.00000000E+00
  0.00000000E+00  0.00000000E+00  0.00000000E+00
  0.00000000E+00  0.00000000E+00  0.00000000E+00
