MAPbI3 tetragonal T=150 K               
1.0
       24.7458992004         0.0000000000         0.0000000000
        0.0000000000        24.7459068298         0.0000000000
        0.0000000000         0.0000000000        25.4960002899
    C    H    I    N   Pb
   64  384  192   64   64
Direct
     0.125959858         0.117903002         0.128168434
     0.125959858         0.117903002         0.628168464
     0.125959858         0.617902994         0.128168434
     0.125959858         0.617902994         0.628168464
     0.625959873         0.117903002         0.128168434
     0.625959873         0.117903002         0.628168464
     0.625959873         0.617902994         0.128168434
     0.625959873         0.617902994         0.628168464
     0.375959873         0.367902994         0.128168434
     0.375959873         0.367902994         0.628168464
     0.375959873         0.867902994         0.128168434
     0.375959873         0.867902994         0.628168464
     0.875959873         0.367902994         0.128168434
     0.875959873         0.367902994         0.628168464
     0.875959873         0.867902994         0.128168434
     0.875959873         0.867902994         0.628168464
     0.132502899         0.377308458         0.128056213
     0.132502899         0.377308458         0.628056228
     0.132502899         0.877308488         0.128056213
     0.132502899         0.877308488         0.628056228
     0.632502913         0.377308458         0.128056213
     0.632502913         0.377308458         0.628056228
     0.632502913         0.877308488         0.128056213
     0.632502913         0.877308488         0.628056228
     0.382502913         0.127308488         0.128056213
     0.382502913         0.127308488         0.628056228
     0.382502913         0.627308488         0.128056213
     0.382502913         0.627308488         0.628056228
     0.882502913         0.127308488         0.128056213
     0.882502913         0.127308488         0.628056228
     0.882502913         0.627308488         0.128056213
     0.882502913         0.627308488         0.628056228
     0.132462874         0.122871034         0.378145635
     0.132462874         0.122871034         0.878145635
     0.132462874         0.622871041         0.378145635
     0.132462874         0.622871041         0.878145635
     0.632462859         0.122871034         0.378145635
     0.632462859         0.122871034         0.878145635
     0.632462859         0.622871041         0.378145635
     0.632462859         0.622871041         0.878145635
     0.382462859         0.372871041         0.378145635
     0.382462859         0.372871041         0.878145635
     0.382462859         0.872871041         0.378145635
     0.382462859         0.872871041         0.878145635
     0.882462859         0.372871041         0.378145635
     0.882462859         0.372871041         0.878145635
     0.882462859         0.872871041         0.378145635
     0.882462859         0.872871041         0.878145635
     0.126005739         0.382117152         0.378174573
     0.126005739         0.382117152         0.878174543
     0.126005739         0.882117152         0.378174573
     0.126005739         0.882117152         0.878174543
     0.626005769         0.382117152         0.378174573
     0.626005769         0.382117152         0.878174543
     0.626005769         0.882117152         0.378174573
     0.626005769         0.882117152         0.878174543
     0.376005739         0.132117152         0.378174573
     0.376005739         0.132117152         0.878174543
     0.376005739         0.632117152         0.378174573
     0.376005739         0.632117152         0.878174543
     0.876005769         0.132117152         0.378174573
     0.876005769         0.132117152         0.878174543
     0.876005769         0.632117152         0.378174573
     0.876005769         0.632117152         0.878174543
     0.404974610         0.091433823         0.115437172
     0.404974610         0.091433823         0.615437150
     0.404974610         0.591433823         0.115437172
     0.404974610         0.591433823         0.615437150
     0.904974580         0.091433823         0.115437172
     0.904974580         0.091433823         0.615437150
     0.904974580         0.591433823         0.115437172
     0.904974580         0.591433823         0.615437150
     0.154974580         0.341433823         0.115437172
     0.154974580         0.341433823         0.615437150
     0.154974580         0.841433823         0.115437172
     0.154974580         0.841433823         0.615437150
     0.654974580         0.341433823         0.115437172
     0.654974580         0.341433823         0.615437150
     0.654974580         0.841433823         0.115437172
     0.654974580         0.841433823         0.615437150
     0.127357036         0.377296656         0.170667753
     0.127357036         0.377296656         0.670667768
     0.127357036         0.877296686         0.170667753
     0.127357036         0.877296686         0.670667768
     0.627357006         0.377296656         0.170667753
     0.627357006         0.377296656         0.670667768
     0.627357006         0.877296686         0.170667753
     0.627357006         0.877296686         0.670667768
     0.377357036         0.127296686         0.170667753
     0.377357036         0.127296686         0.670667768
     0.377357036         0.627296686         0.170667753
     0.377357036         0.627296686         0.670667768
     0.877357006         0.127296686         0.170667753
     0.877357006         0.127296686         0.670667768
     0.877357006         0.627296686         0.170667753
     0.877357006         0.627296686         0.670667768
     0.153775677         0.413882464         0.115386598
     0.153775677         0.413882464         0.615386605
     0.153775677         0.913882494         0.115386598
     0.153775677         0.913882494         0.615386605
     0.653775692         0.413882464         0.115386598
     0.653775692         0.413882464         0.615386605
     0.653775692         0.913882494         0.115386598
     0.653775692         0.913882494         0.615386605
     0.403775692         0.163882494         0.115386598
     0.403775692         0.163882494         0.615386605
     0.403775692         0.663882494         0.115386598
     0.403775692         0.663882494         0.615386605
     0.903775692         0.163882494         0.115386598
     0.903775692         0.163882494         0.615386605
     0.903775692         0.663882494         0.115386598
     0.903775692         0.663882494         0.615386605
     0.306168139         0.092260152         0.113321066
     0.306168139         0.092260152         0.613321066
     0.306168139         0.592260122         0.113321066
     0.306168139         0.592260122         0.613321066
     0.806168139         0.092260152         0.113321066
     0.806168139         0.092260152         0.613321066
     0.806168139         0.592260122         0.113321066
     0.806168139         0.592260122         0.613321066
     0.056168139         0.342260152         0.113321066
     0.056168139         0.342260152         0.613321066
     0.056168139         0.842260122         0.113321066
     0.056168139         0.842260122         0.613321066
     0.556168139         0.342260152         0.113321066
     0.556168139         0.342260152         0.613321066
     0.556168139         0.842260122         0.113321066
     0.556168139         0.842260122         0.613321066
     0.331314981         0.127228796         0.062486637
     0.331314981         0.127228796         0.562486649
     0.331314981         0.627228796         0.062486637
     0.331314981         0.627228796         0.562486649
     0.831314981         0.127228796         0.062486637
     0.831314981         0.127228796         0.562486649
     0.831314981         0.627228796         0.062486637
     0.831314981         0.627228796         0.562486649
     0.081314981         0.377228796         0.062486637
     0.081314981         0.377228796         0.562486649
     0.081314981         0.877228796         0.062486637
     0.081314981         0.877228796         0.562486649
     0.581314981         0.377228796         0.062486637
     0.581314981         0.377228796         0.562486649
     0.581314981         0.877228796         0.062486637
     0.581314981         0.877228796         0.562486649
     0.305379272         0.160279214         0.113827609
     0.305379272         0.160279214         0.613827586
     0.305379272         0.660279214         0.113827609
     0.305379272         0.660279214         0.613827586
     0.805379272         0.160279214         0.113827609
     0.805379272         0.160279214         0.613827586
     0.805379272         0.660279214         0.113827609
     0.805379272         0.660279214         0.613827586
     0.055379272         0.410279214         0.113827609
     0.055379272         0.410279214         0.613827586
     0.055379272         0.910279214         0.113827609
     0.055379272         0.910279214         0.613827586
     0.555379272         0.410279214         0.113827609
     0.555379272         0.410279214         0.613827586
     0.555379272         0.910279214         0.113827609
     0.555379272         0.910279214         0.613827586
     0.372497797         0.418371737         0.062212177
     0.372497797         0.418371737         0.562212169
     0.372497797         0.918371737         0.062212177
     0.372497797         0.918371737         0.562212169
     0.872497797         0.418371737         0.062212177
     0.872497797         0.418371737         0.562212169
     0.872497797         0.918371737         0.062212177
     0.872497797         0.918371737         0.562212169
     0.122497797         0.168371737         0.062212177
     0.122497797         0.168371737         0.562212169
     0.122497797         0.668371737         0.062212177
     0.122497797         0.668371737         0.562212169
     0.622497797         0.168371737         0.062212177
     0.622497797         0.168371737         0.562212169
     0.622497797         0.668371737         0.062212177
     0.622497797         0.668371737         0.562212169
     0.408684164         0.444763064         0.111584917
     0.408684164         0.444763064         0.611584902
     0.408684164         0.944763064         0.111584917
     0.408684164         0.944763064         0.611584902
     0.908684134         0.444763064         0.111584917
     0.908684134         0.444763064         0.611584902
     0.908684134         0.944763064         0.111584917
     0.908684134         0.944763064         0.611584902
     0.158684134         0.194763064         0.111584917
     0.158684134         0.194763064         0.611584902
     0.158684134         0.694763064         0.111584917
     0.158684134         0.694763064         0.611584902
     0.658684134         0.194763064         0.111584917
     0.658684134         0.194763064         0.611584902
     0.658684134         0.694763064         0.111584917
     0.658684134         0.694763064         0.611584902
     0.340662867         0.444248855         0.114345044
     0.340662867         0.444248855         0.614345074
     0.340662867         0.944248855         0.114345044
     0.340662867         0.944248855         0.614345074
     0.840662837         0.444248855         0.114345044
     0.840662837         0.444248855         0.614345074
     0.840662837         0.944248855         0.114345044
     0.840662837         0.944248855         0.614345074
     0.090662837         0.194248855         0.114345044
     0.090662837         0.194248855         0.614345074
     0.090662837         0.694248855         0.114345044
     0.090662837         0.694248855         0.614345074
     0.590662837         0.194248855         0.114345044
     0.590662837         0.194248855         0.614345074
     0.590662837         0.694248855         0.114345044
     0.590662837         0.694248855         0.614345074
     0.161521852         0.096029669         0.113855399
     0.161521852         0.096029669         0.613855422
     0.161521852         0.596029639         0.113855399
     0.161521852         0.596029639         0.613855422
     0.661521852         0.096029669         0.113855399
     0.661521852         0.096029669         0.613855422
     0.661521852         0.596029639         0.113855399
     0.661521852         0.596029639         0.613855422
     0.411521852         0.346029669         0.113855399
     0.411521852         0.346029669         0.613855422
     0.411521852         0.846029639         0.113855399
     0.411521852         0.846029639         0.613855422
     0.911521852         0.346029669         0.113855399
     0.911521852         0.346029669         0.613855422
     0.911521852         0.846029639         0.113855399
     0.911521852         0.846029639         0.613855422
     0.339171320         0.345801920         0.117601492
     0.339171320         0.345801920         0.617601514
     0.339171320         0.845801950         0.117601492
     0.339171320         0.845801950         0.617601514
     0.839171290         0.345801920         0.117601492
     0.839171290         0.345801920         0.617601514
     0.839171290         0.845801950         0.117601492
     0.839171290         0.845801950         0.617601514
     0.089171290         0.095801950         0.117601492
     0.089171290         0.095801950         0.617601514
     0.089171290         0.595801950         0.117601492
     0.089171290         0.595801950         0.617601514
     0.589171290         0.095801950         0.117601492
     0.589171290         0.095801950         0.617601514
     0.589171290         0.595801950         0.117601492
     0.589171290         0.595801950         0.617601514
     0.128240183         0.123301201         0.170691967
     0.128240183         0.123301201         0.670691967
     0.128240183         0.623301208         0.170691967
     0.128240183         0.623301208         0.670691967
     0.628240168         0.123301201         0.170691967
     0.628240168         0.123301201         0.670691967
     0.628240168         0.623301208         0.170691967
     0.628240168         0.623301208         0.670691967
     0.378240168         0.373301208         0.170691967
     0.378240168         0.373301208         0.670691967
     0.378240168         0.873301208         0.170691967
     0.378240168         0.873301208         0.670691967
     0.878240168         0.373301208         0.170691967
     0.878240168         0.373301208         0.670691967
     0.878240168         0.873301208         0.170691967
     0.878240168         0.873301208         0.670691967
     0.305336654         0.339820176         0.364100426
     0.305336654         0.339820176         0.864100456
     0.305336654         0.839820147         0.364100426
     0.305336654         0.839820147         0.864100456
     0.805336654         0.339820176         0.364100426
     0.805336654         0.339820176         0.864100456
     0.805336654         0.839820147         0.364100426
     0.805336654         0.839820147         0.864100456
     0.055336654         0.089820147         0.364100426
     0.055336654         0.089820147         0.864100456
     0.055336654         0.589820147         0.364100426
     0.055336654         0.589820147         0.864100456
     0.555336654         0.089820147         0.364100426
     0.555336654         0.089820147         0.864100456
     0.555336654         0.589820147         0.364100426
     0.555336654         0.589820147         0.864100456
     0.331368506         0.372356594         0.312511474
     0.331368506         0.372356594         0.812511444
     0.331368506         0.872356594         0.312511474
     0.331368506         0.872356594         0.812511444
     0.831368506         0.372356594         0.312511474
     0.831368506         0.372356594         0.812511444
     0.831368506         0.872356594         0.312511474
     0.831368506         0.872356594         0.812511444
     0.081368506         0.122356594         0.312511474
     0.081368506         0.122356594         0.812511444
     0.081368506         0.622356594         0.312511474
     0.081368506         0.622356594         0.812511444
     0.581368506         0.122356594         0.312511474
     0.581368506         0.122356594         0.812511444
     0.581368506         0.622356594         0.312511474
     0.581368506         0.622356594         0.812511444
     0.306175202         0.407830268         0.363015205
     0.306175202         0.407830268         0.863015175
     0.306175202         0.907830238         0.363015205
     0.306175202         0.907830238         0.863015175
     0.806175232         0.407830268         0.363015205
     0.806175232         0.407830268         0.863015175
     0.806175232         0.907830238         0.363015205
     0.806175232         0.907830238         0.863015175
     0.056175232         0.157830238         0.363015205
     0.056175232         0.157830238         0.863015175
     0.056175232         0.657830238         0.363015205
     0.056175232         0.657830238         0.863015175
     0.556175232         0.157830238         0.363015205
     0.556175232         0.157830238         0.863015175
     0.556175232         0.657830238         0.363015205
     0.556175232         0.657830238         0.863015175
     0.153687119         0.086103305         0.365929902
     0.153687119         0.086103305         0.865929902
     0.153687119         0.586103320         0.365929902
     0.153687119         0.586103320         0.865929902
     0.653687119         0.086103305         0.365929902
     0.653687119         0.086103305         0.865929902
     0.653687119         0.586103320         0.365929902
     0.653687119         0.586103320         0.865929902
     0.403687119         0.336103320         0.365929902
     0.403687119         0.336103320         0.865929902
     0.403687119         0.836103320         0.365929902
     0.403687119         0.836103320         0.865929902
     0.903687119         0.336103320         0.365929902
     0.903687119         0.336103320         0.865929902
     0.903687119         0.836103320         0.365929902
     0.903687119         0.836103320         0.865929902
     0.127258837         0.123407803         0.420748413
     0.127258837         0.123407803         0.920748413
     0.127258837         0.623407781         0.420748413
     0.127258837         0.623407781         0.920748413
     0.627258837         0.123407803         0.420748413
     0.627258837         0.123407803         0.920748413
     0.627258837         0.623407781         0.420748413
     0.627258837         0.623407781         0.920748413
     0.377258837         0.373407811         0.420748413
     0.377258837         0.373407811         0.920748413
     0.377258837         0.873407841         0.420748413
     0.377258837         0.873407841         0.920748413
     0.877258837         0.373407811         0.420748413
     0.877258837         0.373407811         0.920748413
     0.877258837         0.873407841         0.420748413
     0.877258837         0.873407841         0.920748413
     0.405019104         0.408545792         0.365140647
     0.405019104         0.408545792         0.865140676
     0.405019104         0.908545792         0.365140647
     0.405019104         0.908545792         0.865140676
     0.905019104         0.408545792         0.365140647
     0.905019104         0.408545792         0.865140676
     0.905019104         0.908545792         0.365140647
     0.905019104         0.908545792         0.865140676
     0.155019104         0.158545792         0.365140647
     0.155019104         0.158545792         0.865140676
     0.155019104         0.658545792         0.365140647
     0.155019104         0.658545792         0.865140676
     0.655019104         0.158545792         0.365140647
     0.655019104         0.158545792         0.865140676
     0.655019104         0.658545792         0.365140647
     0.655019104         0.658545792         0.865140676
     0.408668280         0.055234492         0.361578524
     0.408668280         0.055234492         0.861578524
     0.408668280         0.555234492         0.361578524
     0.408668280         0.555234492         0.861578524
     0.908668280         0.055234492         0.361578524
     0.908668280         0.055234492         0.861578524
     0.908668280         0.555234492         0.361578524
     0.908668280         0.555234492         0.861578524
     0.158668280         0.305234492         0.361578524
     0.158668280         0.305234492         0.861578524
     0.158668280         0.805234492         0.361578524
     0.158668280         0.805234492         0.861578524
     0.658668280         0.305234492         0.361578524
     0.658668280         0.305234492         0.861578524
     0.658668280         0.805234492         0.361578524
     0.658668280         0.805234492         0.861578524
     0.372471809         0.081647202         0.312221378
     0.372471809         0.081647202         0.812221408
     0.372471809         0.581647217         0.312221378
     0.372471809         0.581647217         0.812221408
     0.872471809         0.081647202         0.312221378
     0.872471809         0.081647202         0.812221408
     0.872471809         0.581647217         0.312221378
     0.872471809         0.581647217         0.812221408
     0.122471809         0.331647217         0.312221378
     0.122471809         0.331647217         0.812221408
     0.122471809         0.831647217         0.312221378
     0.122471809         0.831647217         0.812221408
     0.622471809         0.331647217         0.312221378
     0.622471809         0.331647217         0.812221408
     0.622471809         0.831647217         0.312221378
     0.622471809         0.831647217         0.812221408
     0.340648949         0.055793509         0.364371359
     0.340648949         0.055793509         0.864371359
     0.340648949         0.555793524         0.364371359
     0.340648949         0.555793524         0.864371359
     0.840648949         0.055793509         0.364371359
     0.840648949         0.055793509         0.864371359
     0.840648949         0.555793524         0.364371359
     0.840648949         0.555793524         0.864371359
     0.090648949         0.305793524         0.364371359
     0.090648949         0.305793524         0.864371359
     0.090648949         0.805793524         0.364371359
     0.090648949         0.805793524         0.864371359
     0.590648949         0.305793524         0.364371359
     0.590648949         0.305793524         0.864371359
     0.590648949         0.805793524         0.364371359
     0.590648949         0.805793524         0.864371359
     0.161582679         0.403958082         0.363850951
     0.161582679         0.403958082         0.863850951
     0.161582679         0.903958082         0.363850951
     0.161582679         0.903958082         0.863850951
     0.661582708         0.403958082         0.363850951
     0.661582708         0.403958082         0.863850951
     0.661582708         0.903958082         0.363850951
     0.661582708         0.903958082         0.863850951
     0.411582679         0.153958082         0.363850951
     0.411582679         0.153958082         0.863850951
     0.411582679         0.653958082         0.363850951
     0.411582679         0.653958082         0.863850951
     0.911582708         0.153958082         0.363850951
     0.911582708         0.153958082         0.863850951
     0.911582708         0.653958082         0.363850951
     0.911582708         0.653958082         0.863850951
     0.128295243         0.376720011         0.420697570
     0.128295243         0.376720011         0.920697570
     0.128295243         0.876720011         0.420697570
     0.128295243         0.876720011         0.920697570
     0.628295243         0.376720011         0.420697570
     0.628295243         0.376720011         0.920697570
     0.628295243         0.876720011         0.420697570
     0.628295243         0.876720011         0.920697570
     0.378295243         0.126720011         0.420697570
     0.378295243         0.126720011         0.920697570
     0.378295243         0.626720011         0.420697570
     0.378295243         0.626720011         0.920697570
     0.878295243         0.126720011         0.420697570
     0.878295243         0.126720011         0.920697570
     0.878295243         0.626720011         0.420697570
     0.878295243         0.626720011         0.920697570
     0.339234591         0.154250368         0.367617190
     0.339234591         0.154250368         0.867617190
     0.339234591         0.654250383         0.367617190
     0.339234591         0.654250383         0.867617190
     0.839234591         0.154250368         0.367617190
     0.839234591         0.154250368         0.867617190
     0.839234591         0.654250383         0.367617190
     0.839234591         0.654250383         0.867617190
     0.089234591         0.404250383         0.367617190
     0.089234591         0.404250383         0.867617190
     0.089234591         0.904250383         0.367617190
     0.089234591         0.904250383         0.867617190
     0.589234591         0.404250383         0.367617190
     0.589234591         0.404250383         0.867617190
     0.589234591         0.904250383         0.367617190
     0.589234591         0.904250383         0.867617190
     0.000000000         0.000000000         0.125000000
     0.000000000         0.000000000         0.625000000
     0.000000000         0.500000000         0.125000000
     0.000000000         0.500000000         0.625000000
     0.500000000         0.000000000         0.125000000
     0.500000000         0.000000000         0.625000000
     0.500000000         0.500000000         0.125000000
     0.500000000         0.500000000         0.625000000
     0.250000000         0.250000000         0.125000000
     0.250000000         0.250000000         0.625000000
     0.250000000         0.750000000         0.125000000
     0.250000000         0.750000000         0.625000000
     0.750000000         0.250000000         0.125000000
     0.750000000         0.250000000         0.625000000
     0.750000000         0.750000000         0.125000000
     0.750000000         0.750000000         0.625000000
     0.000000000         0.000000000         0.375000000
     0.000000000         0.000000000         0.875000000
     0.000000000         0.500000000         0.375000000
     0.000000000         0.500000000         0.875000000
     0.500000000         0.000000000         0.375000000
     0.500000000         0.000000000         0.875000000
     0.500000000         0.500000000         0.375000000
     0.500000000         0.500000000         0.875000000
     0.250000000         0.250000000         0.375000000
     0.250000000         0.250000000         0.875000000
     0.250000000         0.750000000         0.375000000
     0.250000000         0.750000000         0.875000000
     0.750000000         0.250000000         0.375000000
     0.750000000         0.250000000         0.875000000
     0.750000000         0.750000000         0.375000000
     0.750000000         0.750000000         0.875000000
     0.250000000         0.000000000         0.375000000
     0.250000000         0.000000000         0.875000000
     0.250000000         0.500000000         0.375000000
     0.250000000         0.500000000         0.875000000
     0.750000000         0.000000000         0.375000000
     0.750000000         0.000000000         0.875000000
     0.750000000         0.500000000         0.375000000
     0.750000000         0.500000000         0.875000000
     0.000000000         0.250000000         0.375000000
     0.000000000         0.250000000         0.875000000
     0.000000000         0.750000000         0.375000000
     0.000000000         0.750000000         0.875000000
     0.500000000         0.250000000         0.375000000
     0.500000000         0.250000000         0.875000000
     0.500000000         0.750000000         0.375000000
     0.500000000         0.750000000         0.875000000
     0.250000000         0.000000000         0.125000000
     0.250000000         0.000000000         0.625000000
     0.250000000         0.500000000         0.125000000
     0.250000000         0.500000000         0.625000000
     0.750000000         0.000000000         0.125000000
     0.750000000         0.000000000         0.625000000
     0.750000000         0.500000000         0.125000000
     0.750000000         0.500000000         0.625000000
     0.000000000         0.250000000         0.125000000
     0.000000000         0.250000000         0.625000000
     0.000000000         0.750000000         0.125000000
     0.000000000         0.750000000         0.625000000
     0.500000000         0.250000000         0.125000000
     0.500000000         0.250000000         0.625000000
     0.500000000         0.750000000         0.125000000
     0.500000000         0.750000000         0.625000000
     0.217999995         0.125000000         0.000000000
     0.217999995         0.125000000         0.500000000
     0.217999995         0.625000000         0.000000000
     0.217999995         0.625000000         0.500000000
     0.717999995         0.125000000         0.000000000
     0.717999995         0.125000000         0.500000000
     0.717999995         0.625000000         0.000000000
     0.717999995         0.625000000         0.500000000
     0.467999995         0.375000000         0.000000000