ENCUT =  520
PREC = Accurate
LCHARG = .FALSE.
LPLANE = .TRUE.
EDIFF = 1e-05
#EDIFFG = -0.02
SIGMA = 0.05
NSW = 500
ISTART = 0
SYSTEM = Ag Ga  S
ICHARG = 2
LORBIT = 11
#ADDGRID = .TRUE.
NELM = 60
IBRION = 2
ISMEAR = 0
LREAL = False
#AMIN = 0.01
#LVHAR = .FALSE.
#LVTOT = .FALSE.
LWAVE = .FALSE.
NPAR = 4
#KSPACING = 0.2
ISIF = 7
#SYMPREC = 1e-3
POITM = 0.5
###B86b 
 GGA=MK
 PARAM1=0.1234
 PARAM2=1.0000
 LUSE_VDW=.TRUE.
 AGGAC=0.0000
