ENCUT =  520
PREC = Accurate
LCHARG = .FALSE.
LPLANE = .TRUE.
EDIFF = 1e-05
EDIFFG = -0.02
SIGMA = 0.05
NSW = 0
ISTART = 0
SYSTEM = Ag Ga  S
ICHARG = 2
LORBIT = 11
#ADDGRID = .TRUE.
NELM = 60
IBRION = -1
ISMEAR = -5
LREAL = False
#AMIN = 0.01
#LVHAR = .FALSE.
#LVTOT = .FALSE.
LWAVE = .FALSE.
NPAR = 4
KSPACING = 0.20
ISIF = 2
#SYMPREC = 1e-3
