ENCUT =  400
PREC = Accurate
LCHARG = .FALSE.
LPLANE = .TRUE.
EDIFF = 1e-04
#EDIFFG = -0.02
SIGMA = 0.05
NSW = 200
ISTART = 0
SYSTEM = Ag Ga  S
ICHARG = 2
LORBIT = 11
#ADDGRID = .TRUE.
NELM = 60
IBRION = 2
ISMEAR = 0
LREAL = False
#AMIN = 0.01
#LVHAR = .FALSE.
#LVTOT = .FALSE.
LWAVE = .FALSE.
NPAR = 4
#KSPACING = 0.25
ISIF = 3
#SYMPREC = 1e-3
POITM = 0.5
