ENCUT =  400
PREC = Accurate
LCHARG = .TRUE.
LPLANE = .TRUE.
EDIFF = 1e-05
#EDIFFG = -0.02
SIGMA = 0.01
NSW = 0
ISTART = 0
SYSTEM = MAPbI
ICHARG = 2
LORBIT = 11
#ADDGRID = .TRUE.
NELM = 60
IBRION = -1
ISMEAR = 0
LREAL = False
#AMIN = 0.01
#LVHAR = .FALSE.
LVTOT = .TRUE.
LWAVE = .FALSE.
NPAR = 4
#KSPACING = 0.15
ISIF = 2
#SYMPREC = 1e-3
POTIM = 0.5
ICORELEVEL = 1
