MAPbI3 tetragonal T=300 K               
   1.00000000000000     
    25.0541992188000009    0.0000000000000000    0.0000000000000000
     0.0000000000000000   25.0542068481000015    0.0000000000000000
     0.0000000000000000    0.0000000000000000   25.3479995727999992
   C    H    I    N    Pb
    64   384   192    64    64
Direct
  0.1137711283348136  0.1535451783587261  0.1272027857554493
  0.0949935217886558  0.1328019596866925  0.6206761830502081
  0.1216261642003582  0.6510212867342318  0.1148232333369108
  0.1185845271527513  0.6513525601718164  0.6310167759706823
  0.6038399143996059  0.1257381854631575  0.1352695004777037
  0.6316352698682087  0.1388543371514762  0.6230029875743882
  0.6094736749659422  0.6173798778079859  0.1294221367530537
  0.5971081352299726  0.6267659163394299  0.6496657943920806
  0.3368647882404957  0.3887501239019688  0.1297477068877610
  0.3125380835661049  0.3767905413590044  0.6172275842960635
  0.3620188175977483  0.8792271355886343  0.0972519752636271
  0.3429293917375308  0.8580295396068636  0.6564924151588484
  0.8725312762772549  0.4139681718493605  0.1122557661606706
  0.8346390191981816  0.3728770854483189  0.6327791492910906
  0.8755429914500631  0.8894723614280643  0.1440608758877750
  0.8706474175198432  0.8779402838964144  0.6509452430764376
  0.1405673514709034  0.3340850443565355  0.1287689186307127
  0.0887345547685391  0.3409917164724798  0.6606705695577988
  0.1208541196320570  0.8826823753867272  0.0876332110366723
  0.1362520068815031  0.8531423162734785  0.6823296443754602
  0.6272446374812441  0.3501304542096355  0.1745110598889169
  0.6396524185313315  0.3732251884693595  0.6648506380131249
  0.6195611976059198  0.8785879038148358  0.1694617736048483
  0.6064698969192932  0.8456371491603586  0.6537120204317819
  0.3734837947723649  0.1038665459553806  0.1359431202467913
  0.3473626114205467  0.0864274419248323  0.6315416233877741
  0.3599575014720778  0.6083177758546554  0.1181116913390270
  0.3601432564813657  0.6136269093082133  0.6303158124146595
  0.8492850643390553  0.1573886999104068  0.1238648183933405
  0.8839967285358229  0.1205639684477034  0.6266121430812447
  0.8561461410958380  0.6664428936713257  0.1127430184866504
  0.8588382979461190  0.6428504546566545  0.6268510880404722
  0.1064449966099470  0.1045761379084414  0.3724680278946255
  0.1041824010547911  0.1136421848821768  0.8706088823301970
  0.1486757811050431  0.6274372475717572  0.3770740662880836
  0.1000289579466047  0.6049382671027816  0.8602706904260491
  0.5991809739715148  0.1215186331483882  0.3666164732726006
  0.6349409097044098  0.0824195276385199  0.8641507749849537
  0.5850485324435880  0.6353423181642153  0.3813708656660889
  0.5772407953221192  0.6258176548850712  0.8673337901675942
  0.3819327840734552  0.3672709688394685  0.3611832187185182
  0.3631577780929279  0.3612858076640988  0.8812626170667617
  0.3524070521268811  0.8652584304210766  0.3857801165931873
  0.3774816753806051  0.8750297350704966  0.8927357468630071
  0.8771869883496151  0.3626813076001423  0.3896145469601477
  0.8721816954374643  0.3860768362436724  0.8574466751741874
  0.8725698572460532  0.8832016359502037  0.3866963710309840
  0.8605438023278590  0.8689295237184483  0.8775302390605151
  0.1370382317320548  0.3988295936273599  0.3932310687632261
  0.1133955780784299  0.3568589354575843  0.8696410160966874
  0.1296309333567690  0.8740627504075988  0.3770303587430917
  0.1248183872327505  0.9060918374653247  0.8844754789172617
  0.6120728057220433  0.3772410199317435  0.3530220620902102
  0.5953879219850815  0.3872079727023723  0.8578609589717298
  0.6216843864549935  0.8850860908291643  0.3881115178726122
  0.5998880947111018  0.8688682255722153  0.8652782741985661
  0.4186110888540679  0.1259509220286387  0.3770329927771536
  0.3920689171642781  0.1283111925111487  0.8615199113029574
  0.3984959588768927  0.6465738676897118  0.3742558891612396
  0.4157849856194363  0.6253299630944439  0.8605766602720399
  0.9088061918411634  0.0980576848212861  0.3801195584899938
  0.9107136606843650  0.1410369203928031  0.8891237881697173
  0.9012256714310884  0.6638011144737865  0.3764483605187519
  0.9113209882832425  0.6460164273307125  0.8600164435159899
  0.3386369979062165  0.0839255516773913  0.1188467834121281
  0.3656037345321504  0.0608723553023438  0.6015170798892886
  0.3596776903704957  0.5760279869635123  0.0890500884716650
  0.3568076794316102  0.5966936675992537  0.6697878535360351
  0.8598554180995645  0.1979839579725313  0.1353571839392617
  0.8537186132087480  0.0896426845138868  0.6212191437789270
  0.8534305239606538  0.7051570632766467  0.0930336332181105
  0.8187727791940086  0.6562980570565097  0.6158116497287880
  0.1642346066182485  0.3516765351177982  0.1607761235924209
  0.0485061543775533  0.3253925283141328  0.6552964526696471
  0.1055244248834359  0.8612033679144474  0.0534814433944499
  0.1668781571488170  0.8832419254114610  0.6901942923606285
  0.6507208300002376  0.3868715120126217  0.1770875931742907
  0.6576774789525524  0.4118203047172583  0.6559677381094822
  0.6570346394648680  0.8976630226407515  0.1810471095814943
  0.5821768014133255  0.8657535190050243  0.6834874946167968
  0.1624753674434336  0.3357178775640531  0.0916783125675927
  0.0935735658776709  0.3544906368104852  0.7013686625530883
  0.1570488808936415  0.8631213592884004  0.1021337283765213
  0.1545961463091107  0.8161247287803699  0.6680382111456702
  0.6542762936803280  0.3162256569142640  0.1785879655626079
  0.6712231250867339  0.3432654533612159  0.6695855896272063
  0.6196947724454571  0.8363544804684008  0.1804561062620765
  0.6204734220565398  0.8071993007755949  0.6687872555108324
  0.3740846925302528  0.0988270871044071  0.1787328574650322
  0.3045983814854922  0.0877863343643224  0.6242397284208193
  0.3210199271936000  0.6279194271922587  0.1191817569687829
  0.3834810713613941  0.5872180215066795  0.6047996874698441
  0.8109536616427183  0.1465900885225911  0.1412983939445689
  0.9103543557345649  0.1104175396124261  0.6595410579206334
  0.8193747984715921  0.6581333181582582  0.1341834181202958
  0.8882361775269143  0.6595115028234457  0.5994194737556831
  0.1301535969597008  0.2928963089298899  0.1391276869570353
  0.1175431747846482  0.3096295015287841  0.6511316585132498
  0.1301777614202848  0.9236563528630395  0.0764615978684385
  0.1132134843900206  0.8455695092580150  0.7182611775445398
  0.5963301527307058  0.3493697978798109  0.2048796583451367
  0.6151579526600601  0.3766589063736014  0.7003652030723003
  0.5863799031282363  0.8986587495641400  0.1887716520762645
  0.5830437888692552  0.8402113160771264  0.6179133052722324
  0.4101233181390019  0.0870991715395919  0.1193796913583042
  0.3557148293567778  0.0706948633721002  0.6706836882637754
  0.3702573376579832  0.5931872647833680  0.1573666682769642
  0.3205393354257530  0.6201239652165109  0.6134110746721189
  0.8473834561100991  0.1536589137343902  0.0810109360006596
  0.9069515382156057  0.1251541270839070  0.5901984307585738
  0.8641324452760782  0.6349882501910469  0.0839755937869982
  0.8690081367127994  0.6539166940171351  0.6674696405820955
  0.3315731959056805  0.1751649231813309  0.1151934452765825
  0.3445513987585659  0.1653590619133279  0.6049438562098985
  0.3858178188174978  0.6791320068867102  0.0800045106287642
  0.4168259907847778  0.6639705266148116  0.6646272080417517
  0.9179505507123398  0.1394544548462837  0.1693185073219133
  0.8271230460821229  0.1811159478107318  0.6117268520557356
  0.8992149083650449  0.6389722384766920  0.1788517226701206
  0.8415276464866306  0.5652308340792603  0.6552184989807555
  0.1013576454270286  0.4053921877676542  0.1168720041484131
  0.0922831356734931  0.3745193763882397  0.5851879609343844
  0.0976307050366091  0.8886309269056867  0.1666108560047574
  0.0708431251585874  0.8442582604502923  0.6313398178761142
  0.5882136220133137  0.3101163975717687  0.1115665574466653
  0.6097179666237265  0.3178187705775901  0.6085711870769803
  0.5949736389208498  0.8507545833834310  0.0944325038704265
  0.6899245866880369  0.8627274472666637  0.6562874212883848
  0.3920449438764464  0.1718233926032662  0.0891004050391368
  0.4065072954054006  0.1424729570389327  0.6115238196806846
  0.4322042251462087  0.6322530395965410  0.0807734308444298
  0.3616574659442314  0.6964873072077982  0.6445532171220716
  0.9144454153266782  0.1055999391065081  0.1130207010655348
  0.8860177640760156  0.2032702107433794  0.6367280054233541
  0.9033393723535607  0.7052978249679607  0.1702842338930214
  0.8981828936903544  0.5687937612533215  0.6205750944049109
  0.0663905500353860  0.3638202800974270  0.1547904355298673
  0.1314139343595910  0.4064268263331695  0.6292787438626349
  0.0593733421009670  0.8459598469795936  0.1312055692150911
  0.1184158625435242  0.8826113269967694  0.6056502702597126
  0.6312737814080429  0.3602111277427910  0.0935296749289232
  0.6168166373845213  0.3785210537867799  0.5842556492303100
  0.6467197992056141  0.8932899171088127  0.0913507250384861
  0.6506790731342724  0.9170610383642388  0.6593473339015425
  0.3847314175559714  0.1876233233397442  0.1531941947991947
  0.3708899452780277  0.1609787604335107  0.6647446253672149
  0.4189387258254165  0.6676580821140794  0.1356636766267149
  0.4084651928396468  0.6760178917453267  0.6011474819497091
  0.8764130963860484  0.0878729732082307  0.1647318908157988
  0.8416624357653910  0.1742494783032913  0.6760094650390186
  0.9378374226418491  0.6631415397375557  0.1306145325604608
  0.8393984331577725  0.5714861666967930  0.5887780861881702
  0.0686288972658804  0.3549705958990418  0.0890311590961158
  0.0653363434724743  0.4141283982897931  0.6297714928991505
  0.0516686521679645  0.9122631695980201  0.1256711937842889
  0.0773884667176418  0.9066571998614285  0.6526505428297072
  0.5708180745532893  0.3742398517796742  0.1176283998348692
  0.5660623628978704  0.3663713336079049  0.6234087880459386
  0.5844747344097105  0.9148954587017202  0.1041319693384193
  0.6614364010032660  0.8844085186764923  0.6020733462793263
  0.4014860664098938  0.3409245827316897  0.1057948577703065
  0.3600209897019338  0.3375696089811660  0.6744530882183229
  0.4034173513895248  0.8069228779343789  0.1096369643473589
  0.3791687636478830  0.8832266114735420  0.5853675985451463
  0.8737841507159443  0.3387096042477064  0.1483874541100723
  0.8755337846685300  0.4356384721138798  0.6734791612970130
  0.8206537490421989  0.8895337064426232  0.0815925097488312
  0.8450651044354960  0.9501030950401764  0.6190680335643903
  0.1563022068088295  0.0882782061975283  0.1550720503398023
  0.1747453377807443  0.1199407842591975  0.6416516096221642
  0.1043181738756318  0.5683505348230078  0.1182707068300577
  0.1487720758788807  0.5727821126684682  0.6301233614937924
  0.6766494564749471  0.1669703436235905  0.1244500743759356
  0.6117739482267012  0.0599213114295539  0.6109970511212670
  0.6482824251086935  0.5630910050226046  0.1789502940186853
  0.6294168122455757  0.6104962676921659  0.5743140969565481
  0.4205770147336637  0.3967446980755835  0.1371344086006819
  0.3894588551559309  0.3908838954218685  0.6474057056632968
  0.3461235958305589  0.8107585661903878  0.1423796114095487
  0.4158595578314428  0.8393346280059544  0.6192570337161640
  0.8128534236839589  0.3663802092350099  0.1457247250433719
  0.8795729918648493  0.4399722040322029  0.6067829064844504
  0.8261564303550395  0.8296460336201537  0.1097977526351449
  0.8780750253588148  0.9125225372361998  0.5757401324564109
  0.1714293266817463  0.1048263531503996  0.0919924317540301
  0.1630196939163292  0.1131358356122812  0.5760429947782570
  0.1530408793998030  0.5900258635509479  0.1606572867294458
  0.0827649144425738  0.5751832776974757  0.6236951784580634
  0.6545376423248827  0.1382263716751846  0.0699133608229599
  0.5595543368063872  0.0946956598332151  0.6320836069257607
  0.6677733083741781  0.5587810755579879  0.1163346293188060
  0.6754167534847311  0.6277265607653604  0.6189689035257460
  0.3984075583498850  0.3995557687019512  0.0748108239841293
  0.3835853772353849  0.3340229372221803  0.6128426171345388
  0.3999039822436931  0.8450149507394952  0.1628886435606018
  0.4119526716522464  0.9031392138065646  0.6387579191148680
  0.8575459653769810  0.3881021123271575  0.1896544106037420
  0.9155235899743673  0.3948410185565023  0.6406309683046774
  0.8733560097453736  0.8524074630019751  0.0681480041983974
  0.9122795845332888  0.9452647839130357  0.6217442522577604
  0.1143856432276505  0.0729823355149535  0.1040650281254855
  0.1452535271453824  0.0657722753295915  0.6171383789237543
  0.1655343589069626  0.5828688059992564  0.0962249044910531
  0.1108591577654621  0.5867632338739747  0.6827415997463456
  0.6826803026699146  0.1017667460157232  0.1170706419407712
  0.6076937834363587  0.0772578718827664  0.6748252459128666
  0.6088388187051805  0.5326614406295879  0.1340534941021990
  0.6360934805675398  0.6739039038566873  0.5907059295565487
  0.1082165896015352  0.1717329786240570  0.0883797525943791
  0.1003575715684473  0.1758961658557198  0.6166758897604021
  0.0831336911858225  0.6538848911704693  0.0948195140407190
  0.1500421977575872  0.6681328259350942  0.6559011873877784
  0.5991953318525578  0.0838532122394375  0.1459017951981630
  0.6182591958300352  0.1532701236352377  0.5844443048128761
  0.5668350282473252  0.6119952625046827  0.1229717164345265
  0.5614457382630770  0.6507062355482948  0.6423835004661217
  0.3098185370266221  0.3800813247641903  0.0970274906330232
  0.3200352698550071  0.3942132604478711  0.5783842948530339
  0.3973399146831161  0.9008072525348317  0.0836912357278404
  0.3566754565323161  0.8510970985590905  0.6966055515290419
  0.9116501866367305  0.4284534269240562  0.1245754769441910
  0.8264176564430358  0.3682967469681160  0.5906476081407785
  0.8489435890992892  0.9196760947231325  0.1604526517553113
  0.8325378446707554  0.8586711771770770  0.6419406477323639
  0.3323893390150988  0.4302714243272328  0.1425701367743700
  0.2945419610738346  0.4059647333249468  0.6439856115157656
  0.3370273169156781  0.9052306335954271  0.1216824837053775
  0.3243666476192724  0.8218963162345827  0.6402534682986900
  0.8442187005307707  0.4469203569888847  0.1114224234359999
  0.7989121431881337  0.3873294764298686  0.6530048591424015
  0.9123105056664459  0.9084433237528409  0.1303639297112277
  0.8695878897744110  0.8923093594710566  0.6917396856046044
  0.1402140725454486  0.1785733145646741  0.1513887192630733
  0.0796460709148992  0.1226382278905297  0.6597385656470334
  0.1529316425604340  0.6702914784939801  0.0914092912356933
  0.0798039246640287  0.6696052090395445  0.6398954749218984
  0.5730183915099285  0.1368848830649584  0.1068257154091432
  0.6739018596693876  0.1284741813434808  0.6219916390996493
  0.6286296082379325  0.6344002549299990  0.0944293064075269
  0.6157009470675747  0.6383029528827199  0.6869417859872197
  0.0754908854266085  0.1482584290001507  0.1472737119939337
  0.0676177541062804  0.1188531456756775  0.5901002915031189
  0.1193939818829350  0.6701398132640156  0.1536137227650114
  0.1283720275500892  0.6567937389681433  0.5892184904232796
  0.6012799837791211  0.1505620392260688  0.1706331973317688
  0.6246451305832085  0.1692976362915082  0.6530779193704811
  0.6156973942133680  0.6436115720291585  0.1632819351014089
  0.5874470131699571  0.5841615129719951  0.6508738640223579
  0.3292192664688536  0.3619790756990630  0.1630739374024680
  0.2869932536213553  0.3414529459488100  0.6133934870721360
  0.3387959315636390  0.8649717720621350  0.0637403387998360
  0.3147853346574619  0.8914342185473318  0.6548404778883251
  0.8746980991229437  0.3940831784415064  0.0739798675658563
  0.8475943011594104  0.3348795150230426  0.6499976165230007
  0.8839008921832678  0.8588197667254298  0.1733815281258916
  0.9036274801952109  0.8496888671377602  0.6451426954916420
  0.3295894853581523  0.4343634140126538  0.3576631678637531
  0.3249080531904806  0.4068378513736436  0.8234179438654855
  0.4087698356077772  0.8558512552969505  0.3228151990501729
  0.3542829766580690  0.8868176658833993  0.8131016565318848
  0.8954838517807733  0.3990935634171100  0.3158885431447465
  0.8757427476981431  0.4223289241941189  0.9334793115130966
  0.8545818502160871  0.8896294032764498  0.3048591549966068
  0.8416841796627336  0.9155808840422126  0.8103190390697490
  0.0689527822230026  0.1819488965039844  0.3740662460923891
  0.1514863906775706  0.1680884088981400  0.9124789078230739
  0.1430501512847874  0.6986521005097320  0.3320568333451276
  0.1307725707454148  0.6793347227066056  0.8862770449209929
  0.6691226420566447  0.0844794466518462  0.3971887545890934
  0.6824725726365578  0.1479896876676400  0.8904330586064482
  0.6290063587261189  0.5923249300990832  0.3237258911221881
  0.6458892416697841  0.5912745598733442  0.9016934217250770
  0.3952115881707784  0.4497638643104609  0.3597470269354883
  0.3909202451484465  0.4017943824158330  0.8140353397854527
  0.4282956888782444  0.8266277413991580  0.3786098897417676
  0.4206875078011303  0.8852916333052850  0.8208228913815164
  0.8301157686619426  0.3992003416062933  0.3278266989543731
  0.8215524215310824  0.3846285886362159  0.9240607191024555
  0.9099407126763275  0.8540220930572191  0.3163886657451867
  0.8851987539088836  0.8669400268288351  0.7987194896160735
  0.1351328175151982  0.1821998382405822  0.3814759977257334
  0.1641712223568471  0.1660308187893282  0.8474053099704102
  0.0986026237829076  0.6939246617020236  0.3812604145752903
  0.1768816006237361  0.6390258403464074  0.8601707607301763
  0.6630002355732129  0.1485468454492724  0.4145167468373059
  0.6251514837871832  0.1409569840593848  0.9235438966511753
  0.6665075740352623  0.6344937050771192  0.3596906669101905
  0.6572459139221881  0.6531078332157573  0.8778016321995010
  0.3640149286112978  0.4302452751430460  0.4139168015978507
  0.3689741913273167  0.4427953284766017  0.8603034862541398
  0.4303027579772591  0.8929847050300985  0.3718862399194534
  0.3865098683611311  0.9388916902993586  0.8389288999869945
  0.8611800956135466  0.3429371141995293  0.3093572056248303
  0.8262937460497101  0.4443523372548547  0.8951101750659483
  0.9105524172049748  0.9206628845827267  0.3218139783074417
  0.9053660884069059  0.9228054657525271  0.8307134640852085
  0.0971847971876381  0.1649849071030770  0.4318815009374568
  0.1865315531413708  0.1177603903043087  0.8860602665349866
  0.0912484211637772  0.6583159773309004  0.3251878328333871
  0.1528428925220982  0.6269098666949056  0.9210292734189378
  0.6829876507934183  0.1334943610980615  0.3542844117002622
  0.6256210264714296  0.1667272214316573  0.8619756260868074
  0.6274176966115871  0.6590574022201042  0.3126399078130672
  0.6507156149704646  0.6009772310598367  0.8366596555651646
  0.1455943949393126  0.0899648759689120  0.3848657843051083
  0.0726616820698240  0.1270610946895765  0.8971450821991278
  0.1191382430243881  0.5976457620258940  0.3888623424670890
  0.0903543545090324  0.6200460200960313  0.8210406720084120
  0.5741467946840330  0.1238359804344786  0.4019706210916640
  0.6459675070156655  0.0831935193092565  0.8224210233301268
  0.5523844644276887  0.6090548218883381  0.3689750182761993
  0.5640184780976343  0.6498023204624414  0.9009123094979679
  0.4172210418697255  0.3576169644661885  0.3847135074921057
  0.3979183682879987  0.3652250318666398  0.9069709019954009
  0.3259456730907457  0.8380402189508349  0.3646621932575296
  0.4158918114362072  0.8603328933171246  0.9067983240203317
  0.9205646794342109  0.3595277775049735  0.3933380122980963
  0.9050447707142970  0.3595044078248010  0.8682669506880065
  0.9076757975179252  0.8934755708276734  0.4100302946326094
  0.8197616202578226  0.8787583027929021  0.8891478838550440
  0.1023707850063548  0.1043826167812887  0.3295884477573256
  0.1113965212439530  0.0711145490080768  0.8769060308973231
  0.1691478562410965  0.6423436350884640  0.4124874049642459
  0.0649713651126671  0.6066741587448221  0.8859378166053835
  0.5913306407852925  0.0846824139018117  0.3447216289787137
  0.5932381174255946  0.0702249665504546  0.8690236119243646
  0.5718244634189168  0.6768865235712539  0.3824765566966104
  0.5584566924559117  0.5862351709189905  0.8677141207465353
  0.3922861513842216  0.3657687142836678  0.3193281598622784
  0.3646534953876231  0.3235141260011957  0.8595219498490625
  0.3389504711213479  0.9064860356814350  0.3807034572241258
  0.3488586975633421  0.8421738186453595  0.8910934851126953
  0.8572066422210994  0.3246662139988273  0.3980349187931512
  0.8863412715486086  0.4181149937404564  0.8316225992023961
  0.8598569776794786  0.8422911183477382  0.3951472770269223
  0.8889852235060728  0.8826117758385742  0.9073804459241456
  0.3496316913608513  0.3395202927752854  0.3702961735296761
  0.3268001253450830  0.3627623441801877  0.9052546069161267
  0.3532836350904996  0.8545912666899383  0.4274322510555489
  0.3631046076590065  0.9060679225010131  0.9195240288654201
  0.8620207279911428  0.3941616584462701  0.4156960817335162
  0.8416732989780127  0.3629487085429337  0.8368240409406179
  0.8406864161598666  0.9118771991569707  0.3948909401443524
  0.8644827478136361  0.8259184493171402  0.8715723389203479
  0.0742233982080047  0.0805625956615008  0.3892757256220700
  0.0915972421544055  0.1203523124374795  0.8298398158133278
  0.1771893401757093  0.6110392814543403  0.3488083728389663
  0.1150562120077464  0.5640365247001395  0.8583760184666150
  0.5923974147966644  0.1559682068679787  0.3413692551848304
  0.6617317000526424  0.0560610278302718  0.8856887516333669
  0.5996711695476835  0.6241711992477394  0.4203108873534689
  0.5681187222183063  0.6458956887104135  0.8301863592634814
  0.3453965421775559  0.0952795397561100  0.4058542320486667
  0.4127361875891086  0.1195041016265246  0.9430689299877215
  0.3717012531652345  0.5766190067618524  0.4117279367674891
  0.3633183969701133  0.6267522507252044  0.9247612491036573
  0.8802152830809473  0.1610066027069314  0.4266815679529853
  0.8928717192503677  0.1080127659962655  0.9635879254430136
  0.9375465207337466  0.5877039771932063  0.3911495267482460
  0.8514694408763879  0.5938613105195346  0.8878243219829928
  0.1782468722503806  0.3299399239604925  0.4162189901619904
  0.1931321166151320  0.3359861549591652  0.8885098453549128
  0.1399323393595212  0.7908766194266088  0.3797660346592850
  0.0443056627892880  0.8889239543417977  0.9064870854040837
  0.6392370225962388  0.3196084975482922  0.4079609613014600
  0.6186176434652731  0.3410071700669164  0.9226368509703596
  0.6841152867696543  0.8302110835826398  0.3937935859961102
  0.6085472592516755  0.7863064157561015  0.8809973754635463
  0.3958007085056220  0.0512340142645921  0.4070595686381179
  0.3661218508089615  0.0763234232675077  0.9235384129346722
  0.3536513422238727  0.6308768257971616  0.4441914078286077
  0.4211084086282085  0.5955916291884985  0.9388168255942160
  0.9042977127518217  0.1097461634373512  0.4627379475003226
  0.8883183219170189  0.0641908462922078  0.9141660454329351
  0.8724433048870750  0.5835759346019616  0.3826944869623191
  0.9018165330127118  0.6022252076332271  0.9310999784148450
  0.1170055372371804  0.3170906246157358  0.3907218969955021
  0.1624463275743895  0.2926588871878832  0.8474773346623203
  0.1790948436416258  0.8243921228220790  0.4206124842601449
  0.0847886447152594  0.8357755262356831  0.9068522717751943
  0.5769551628518717  0.3081934877160057  0.3859465739489525
  0.5774471343809754  0.3080598818571318  0.8811798011970510
  0.6373532252928625  0.8121765597449516  0.3490183334409305
  0.5917633484638725  0.8234176400134408  0.9339283474007557
  0.3664390034450748  0.0644750725396303  0.3504956871033740
  0.3495223040017774  0.1399277630651249  0.9324871120809459
  0.4172810386521352  0.6100145666546912  0.4477289884076955
  0.3733562511325065  0.5662894196798691  0.9013510082262504
  0.8436025028782749  0.1059359253244012  0.4322080952327484
  0.8399238394252535  0.1088638900739056  0.9220523575837120
  0.8973628169359872  0.6080027173089003  0.4391770418427569
  0.9100621554011258  0.5643414368659225  0.8778616567742976
  0.1247137528233846  0.3402110586620979  0.4520315124739271
  0.1479269791848528  0.2933294258705313  0.9123165670518351
  0.1938565097454005  0.8223847797145218  0.3559120395003694
  0.0627468726986915  0.8610799695886708  0.8496745567198233
  0.5881160067768459  0.3559895943261269  0.4300643539253111
  0.5531790533920270  0.3550874916449296  0.9215900638789443
  0.6268525782227178  0.8046020415656886  0.4147346067087898
  0.6539364691915639  0.8240151151749091  0.9132044643725665
  0.1502618575371232  0.4261795428926500  0.4242310766521772
  0.1054049595713747  0.3581586291577346  0.8273374090106048
  0.0881494973835919  0.8639346641035521  0.3854315913744704
  0.1172767636365988  0.9383763956066502  0.8563737221224446
  0.6404010558204392  0.3606652133214581  0.3245909955363748
  0.6185448651797716  0.3703395304538855  0.8253267576482831
  0.6238606532344869  0.8989717990371735  0.4289283326408351
  0.5875294310464062  0.9016770019221928  0.8909537364047661
  0.4366338658938305  0.1356008605477166  0.4151505397096366
  0.4349496510982812  0.1343903982999256  0.8577458861820466
  0.4106365724286669  0.6864216198205781  0.3873075472811153
  0.4265361122619540  0.6668943210468213  0.8680778890235462
  0.9511468049789618  0.1083788632142269  0.3815356130474752
  0.8845520954228123  0.1737865373137356  0.8774340677393238
  0.8773713798413800  0.6645531774320808  0.3404655376471418
  0.8969403207034413  0.6827815541197931  0.8783453815203219
  0.0960626300788934  0.4077773430704632  0.3812671503616050
  0.1256607745125714  0.3962619314465412  0.8837221965903976
  0.1341828781531852  0.8897210150988879  0.3370494186272127
  0.1585340055639891  0.8815841885442319  0.8713828906915516
  0.6281386849285752  0.4140513876271769  0.3698470255882034
  0.6172859916699776  0.4202837443059351  0.8758304971435990
  0.5804635531208118  0.8851765374263090  0.3739528937229522
  0.5659033119873601  0.8576337725541919  0.8405241088958567
  0.3977870648243859  0.1607977894773623  0.3610845763475766
  0.3712921757242202  0.1650664693371761  0.8504329316519307
  0.3629565501395357  0.6500171402601267  0.3492518979233961
  0.3862319314923577  0.6232246039699464  0.8288001873397827
  0.8900987281395278  0.1158555870563801  0.3453131760354082
  0.9249875508230916  0.1197210971119438  0.8541341166446901
  0.9421491290483297  0.6764050798566184  0.3679183213361041
  0.8948527179080158  0.6428172604456709  0.8200578754301089
  0.4486608714809265  0.1119809955231380  0.3491172958713819
  0.3787515262600429  0.0956005961804752  0.8364828706099660
  0.4309279508570840  0.6268688177665107  0.3527585253213577
  0.4504652343578625  0.6017026683820553  0.8496772331882564
  0.9037257143964293  0.0548429398341568  0.3793816082468013
  0.9448099649721887  0.1563624837609953  0.9112660445901108
  0.8834366973390508  0.6903378392397191  0.4056197732306595
  0.9548274653693322  0.6453763726600711  0.8581522778146167
  0.1637743916899898  0.4017715004625757  0.3593537740951121
  0.0778686059116714  0.3443034240744204  0.8909749861934906
  0.1434828896991459  0.9035437381330101  0.4057488678571611
  0.1331865243858032  0.9215282304912179  0.9240044890039008
  0.5738382665190255  0.3857164468101529  0.3340164744311678
  0.5570270243339481  0.4018889730379055  0.8434351334328030
  0.6460624071977765  0.9102510983681560  0.3627022755096134
  0.6336651174796075  0.8808567453520691  0.8405514927087226
  0.9981487743676674  0.0115508947492812  0.1255883536011186
  0.0007751005552496  0.9913032556981831  0.6145764296202894
  0.0198588891067764  0.5151402274610357  0.1150705953075062
  0.9921259290575073  0.5087085978569155  0.6150169652393428
  0.4969011585181546  0.9871906302002769  0.1174984922524438
  0.4973043432167832  0.0010057465840437  0.6226781028659341
  0.5075164431398628  0.4816502587760502  0.1192666671822731
  0.5151477951585034  0.4713743399536864  0.6177938746438848
  0.2468391555395063  0.2597845268056445  0.1215841997091643
  0.2516475088676323  0.2360927284702383  0.6105469416222394
  0.2338829034814897  0.7629969049810729  0.1161133433709998
  0.2562195834097212  0.7341609648778042  0.6131778770093042
  0.7490556202733341  0.2520455645990004  0.1183206913308101
  0.7282522732246901  0.2490416569522964  0.6119295126877619
  0.7473065423033239  0.7727063487352406  0.1325842431072361
  0.7320417001481627  0.7753116344823617  0.6146535393437434
  0.0095865882324255  0.9744958370676279  0.3718477711426423
  0.9741620172739759  0.9899749600789982  0.8750466905624612
  0.9762533110517778  0.4940053137936334  0.3717230991284233
  0.9900970576851603  0.4852760315640216  0.8663066140693813
  0.4887470493605546  0.9912969915121259  0.3811124069006544
  0.4859758540683065  0.0046774225821291  0.8663224435841613
  0.4812338181699460  0.4982109264404027  0.3778411956214754
  0.4716525370530888  0.4893975277740101  0.8708697019459853
  0.2713606018704736  0.2050882779260478  0.3675469703394387
  0.2759429594807715  0.2189098176790883  0.8749485492129094
  0.2665761887555846  0.7264613407840749  0.3699403761324647
  0.2817358704401292  0.7004995631179533  0.8659582386807086
  0.7697207219796497  0.2030096779488554  0.3672078317622143
  0.7697705624737563  0.1954352462236155  0.8690766731976390
  0.7631836674949338  0.7008400679175117  0.3755502601318876
  0.7595683021446079  0.7136114255007892  0.8671273646793076
  0.2623856221824389  0.9978930083255736  0.3792095051869109
  0.2690223784490942  0.0299637377023206  0.8702495871836136
  0.2641165492714422  0.5175486598675729  0.3669611348410139
  0.2765625684255428  0.5379129958809638  0.8718247798794045
  0.7898699577091296  0.0297322311502878  0.3706403821457124
  0.7765909031030778  0.0135117906387752  0.8780572859070185