MAPbI3 tetragonal T=300 K               
   1.00000000000000     
    25.0541992188000009    0.0000000000000000    0.0000000000000000
     0.0000000000000000   25.0542068481000015    0.0000000000000000
     0.0000000000000000    0.0000000000000000   25.3479995727999992
   C    H    I    N    Pb
    64   384   192    64    64
Direct
  0.0786877267958980  0.1326540492412407  0.1337883903565123
  0.0786877267958982  0.1326540492412408  0.6337883803565139
  0.0786877267958980  0.6326540392412447  0.1337883903565123
  0.0786877267958981  0.6326540392412449  0.6337883803565136
  0.5786876967959023  0.1326540492412413  0.1337883903565129
  0.5786876967959019  0.1326540492412412  0.6337883803565136
  0.5786876967959017  0.6326540392412449  0.1337883903565124
  0.5786876967959022  0.6326540392412445  0.6337883803565140
  0.3286877267958986  0.3826540392412419  0.1337883903565122
  0.3286877267958984  0.3826540392412405  0.6337883803565139
  0.3286877267958981  0.8826540392412447  0.1337883903565122
  0.3286877267958985  0.8826540392412442  0.6337883803565141
  0.8286876967959019  0.3826540392412409  0.1337883903565128
  0.8286876967959026  0.3826540392412405  0.6337883803565136
  0.8286876967959023  0.8826540392412443  0.1337883903565124
  0.8286876967959018  0.8826540392412449  0.6337883803565137
  0.1195745069154914  0.3867031325196554  0.1339873008130342
  0.1195745069154917  0.3867031325196555  0.6339873008130357
  0.1195745069154914  0.8867031025196594  0.1339873008130345
  0.1195745069154918  0.8867031025196591  0.6339873008130353
  0.6195745069154878  0.3867031325196562  0.1339873008130345
  0.6195745069154881  0.3867031325196560  0.6339873008130350
  0.6195745069154875  0.8867031025196600  0.1339873008130343
  0.6195745069154887  0.8867031025196594  0.6339873008130341
  0.3695745069154920  0.1367031025196576  0.1339873008130345
  0.3695745069154923  0.1367031025196573  0.6339873008130353
  0.3695745069154920  0.6367031025196592  0.1339873008130347
  0.3695745069154922  0.6367031025196601  0.6339873008130354
  0.8695745069154874  0.1367031025196568  0.1339873008130346
  0.8695745069154877  0.1367031025196577  0.6339873008130352
  0.8695745069154880  0.6367031025196593  0.1339873008130342
  0.8695745069154880  0.6367031025196597  0.6339873008130353
  0.1405919922184628  0.1054089682770789  0.4006771694671011
  0.1405919922184637  0.1054089682770789  0.9006771694670987
  0.1405919922184629  0.6054089382770778  0.4006771694671009
  0.1405919922184637  0.6054089382770799  0.9006771694670993
  0.6405919622184667  0.1054089682770787  0.4006771694671005
  0.6405919622184663  0.1054089682770790  0.9006771694670990
  0.6405919622184660  0.6054089382770781  0.4006771694671009
  0.6405919622184663  0.6054089382770783  0.9006771694670992
  0.3905919922184646  0.3554089682770781  0.4006771694671001
  0.3905919922184637  0.3554089682770776  0.9006771694670992
  0.3905919922184639  0.8554089382770783  0.4006771694671005
  0.3905919922184639  0.8554089382770780  0.9006771694670992
  0.8905919622184664  0.3554089682770781  0.4006771694671011
  0.8905919622184665  0.3554089682770772  0.9006771694670991
  0.8905919622184659  0.8554089382770780  0.4006771694671005
  0.8905919622184663  0.8554089382770789  0.9006771694670990
  0.1201677189385696  0.4185476293398326  0.3631217576886951
  0.1201677189385695  0.4185476293398323  0.8631217876886936
  0.1201677189385691  0.9185476493398335  0.3631217576886956
  0.1201677189385694  0.9185476493398337  0.8631217876886940
  0.6201676889385677  0.4185476293398323  0.3631217576886955
  0.6201676889385668  0.4185476293398323  0.8631217876886944
  0.6201676889385669  0.9185476493398337  0.3631217576886945
  0.6201676889385666  0.9185476493398335  0.8631217876886939
  0.3701677189385701  0.1685476493398314  0.3631217576886954
  0.3701677189385694  0.1685476493398313  0.8631217876886935
  0.3701677189385688  0.6685476493398338  0.3631217576886952
  0.3701677189385695  0.6685476493398338  0.8631217876886943
  0.8701676889385666  0.1685476493398317  0.3631217576886954
  0.8701676889385664  0.1685476493398320  0.8631217876886941
  0.8701676889385672  0.6685476493398339  0.3631217576886954
  0.8701676889385670  0.6685476493398335  0.8631217876886942
  0.3776323607609574  0.1042620353591836  0.1061295450187582
  0.3776323607609582  0.1042620353591835  0.6061295250187611
  0.3776323607609572  0.6042620323591845  0.1061295450187586
  0.3776323607609570  0.6042620323591863  0.6061295250187599
  0.8776323607609574  0.1042620353591826  0.1061295450187589
  0.8776323607609564  0.1042620353591842  0.6061295250187622
  0.8776323607609576  0.6042620323591862  0.1061295450187592
  0.8776323607609574  0.6042620323591859  0.6061295250187615
  0.1276323607609577  0.3542620323591853  0.1061295450187584
  0.1276323607609587  0.3542620323591861  0.6061295250187598
  0.1276323607609581  0.8542620323591862  0.1061295450187586
  0.1276323607609577  0.8542620323591867  0.6061295250187584
  0.6276323607609580  0.3542620323591850  0.1061295450187585
  0.6276323607609572  0.3542620323591856  0.6061295250187613
  0.6276323607609561  0.8542620323591847  0.1061295450187577
  0.6276323607609572  0.8542620323591857  0.6061295250187594
  0.0766173012037203  0.3943277580902345  0.1366483622987013
  0.0766173012037213  0.3943277580902338  0.6366483922987035
  0.0766173012037198  0.8943277280902364  0.1366483622987007
  0.0766173012037196  0.8943277280902365  0.6366483922987022
  0.5766173212037221  0.3943277580902350  0.1366483622987013
  0.5766173212037202  0.3943277580902343  0.6366483922987024
  0.5766173212037214  0.8943277280902365  0.1366483622987009
  0.5766173212037206  0.8943277280902353  0.6366483922987035
  0.3266173212037201  0.1443277280902333  0.1366483622987007
  0.3266173212037201  0.1443277280902340  0.6366483922987027
  0.3266173212037209  0.6443277280902352  0.1366483622987014
  0.3266173212037199  0.6443277280902349  0.6366483922987023
  0.8266173212037210  0.1443277280902348  0.1366483622987012
  0.8266173212037222  0.1443277280902349  0.6366483922987016
  0.8266173212037217  0.6443277280902361  0.1366483622987023
  0.8266173212037218  0.6443277280902346  0.6366483922987027
  0.1354440032972122  0.3772791221493135  0.1730654323560290
  0.1354440032972109  0.3772791221493127  0.6730654423560287
  0.1354440032972122  0.8772790921493151  0.1730654323560295
  0.1354440032972120  0.8772790921493150  0.6730654423560285
  0.6354439732972130  0.3772791221493125  0.1730654323560289
  0.6354439732972108  0.3772791221493128  0.6730654423560284
  0.6354439732972131  0.8772790921493151  0.1730654323560283
  0.6354439732972124  0.8772790921493133  0.6730654423560314
  0.3854440032972105  0.1272790921493143  0.1730654323560299
  0.3854440032972103  0.1272790921493130  0.6730654423560287
  0.3854440032972106  0.6272790921493145  0.1730654323560295
  0.3854440032972112  0.6272790921493148  0.6730654423560285
  0.8854439732972115  0.1272790921493144  0.1730654323560300
  0.8854439732972118  0.1272790921493141  0.6730654423560282
  0.8854439732972121  0.6272790921493135  0.1730654323560289
  0.8854439732972117  0.6272790921493121  0.6730654423560286
  0.3775265128728639  0.2049508998938757  0.0833788501159974
  0.3775265128728642  0.2049508998938738  0.5833788701159960
  0.3775265128728644  0.7049509098938743  0.0833788501159980
  0.3775265128728653  0.7049509098938744  0.5833788701159971
  0.8775265128728647  0.2049508998938752  0.0833788501159969
  0.8775265128728641  0.2049508998938736  0.5833788701159955
  0.8775265128728634  0.7049509098938749  0.0833788501159977
  0.8775265128728641  0.7049509098938744  0.5833788701159972
  0.1275265128728643  0.4549509098938732  0.0833788501159968
  0.1275265128728647  0.4549509098938742  0.5833788701159958
  0.1275265128728632  0.9549509098938761  0.0833788501159963
  0.1275265128728643  0.9549509098938747  0.5833788701159961
  0.6275265128728643  0.4549509098938740  0.0833788501159978
  0.6275265128728637  0.4549509098938744  0.5833788701159957
  0.6275265128728643  0.9549509098938748  0.0833788501159962
  0.6275265128728645  0.9549509098938739  0.5833788701159954
  0.4348533102004107  0.1770771600026093  0.1022903388521032
  0.4348533102004112  0.1770771600026086  0.6022903178521047
  0.4348533102004109  0.6770771460026084  0.1022903388521026
  0.4348533102004108  0.6770771460026085  0.6022903178521049
  0.9348533102004133  0.1770771600026080  0.1022903388521026
  0.9348533102004128  0.1770771600026080  0.6022903178521042
  0.9348533102004132  0.6770771460026094  0.1022903388521019
  0.9348533102004133  0.6770771460026094  0.6022903178521045
  0.1848533062004115  0.4270771460026097  0.1022903388521032
  0.1848533062004110  0.4270771460026093  0.6022903178521056
  0.1848533062004108  0.9270771460026079  0.1022903388521018
  0.1848533062004115  0.9270771460026084  0.6022903178521045
  0.6848533102004152  0.4270771460026089  0.1022903388521033
  0.6848533102004130  0.4270771460026098  0.6022903178521037
  0.6848533102004131  0.9270771460026097  0.1022903388521031
  0.6848533102004133  0.9270771460026083  0.6022903178521044
  0.4000550903553632  0.2143812385391881  0.1447816894291500
  0.4000550903553638  0.2143812385391880  0.6447817184291489
  0.4000550903553619  0.7143812385391847  0.1447816894291513
  0.4000550903553624  0.7143812385391864  0.6447817184291497
  0.9000551203553592  0.2143812385391875  0.1447816894291507
  0.9000551203553590  0.2143812385391885  0.6447817184291491
  0.9000551203553595  0.7143812385391850  0.1447816894291500
  0.9000551203553590  0.7143812385391862  0.6447817184291484
  0.1500551213553620  0.4643812385391874  0.1447816894291499
  0.1500551213553623  0.4643812385391864  0.6447817184291490
  0.1500551213553616  0.9643812385391854  0.1447816894291506
  0.1500551213553613  0.9643812385391849  0.6447817184291498
  0.6500551203553597  0.4643812385391866  0.1447816894291500
  0.6500551203553588  0.4643812385391871  0.6447817184291489
  0.6500551203553591  0.9643812385391857  0.1447816894291504
  0.6500551203553582  0.9643812385391854  0.6447817184291494
  0.4105480730717635  0.4034090244441449  0.1376273012305878
  0.4105480730717657  0.4034090244441445  0.6376273292305877
  0.4105480730717641  0.9034089944441482  0.1376273012305890
  0.4105480730717653  0.9034089944441467  0.6376273292305888
  0.9105480730717661  0.4034090244441457  0.1376273012305902
  0.9105480730717654  0.4034090244441426  0.6376273292305878
  0.9105480730717662  0.9034089944441481  0.1376273012305887
  0.9105480730717651  0.9034089944441475  0.6376273292305883
  0.1605480760717659  0.1534089944441468  0.1376273012305892
  0.1605480760717652  0.1534089944441447  0.6376273292305876
  0.1605480760717659  0.6534089944441466  0.1376273012305888
  0.1605480760717664  0.6534089944441477  0.6376273292305896
  0.6605480730717653  0.1534089944441452  0.1376273012305894
  0.6605480730717664  0.1534089944441459  0.6376273292305876
  0.6605480730717661  0.6534089944441483  0.1376273012305894
  0.6605480730717656  0.6534089944441462  0.6376273292305885
  0.3980234589987039  0.3510300387370971  0.0977906438678221
  0.3980234589987031  0.3510300387370988  0.5977906408678233
  0.3980234589987032  0.8510300387370997  0.0977906438678215
  0.3980234589987037  0.8510300387370991  0.5977906408678229
  0.8980234589987018  0.3510300387370969  0.0977906438678207
  0.8980234589987024  0.3510300387370972  0.5977906408678244
  0.8980234589987024  0.8510300387370995  0.0977906438678211
  0.8980234589987026  0.8510300387371006  0.5977906408678241
  0.1480234589987039  0.1010300387370968  0.0977906438678198
  0.1480234589987048  0.1010300387370975  0.5977906408678242
  0.1480234589987034  0.6010300387370990  0.0977906438678214
  0.1480234589987048  0.6010300387371011  0.5977906408678242
  0.6480234589987034  0.1010300387370981  0.0977906438678219
  0.6480234589987022  0.1010300387370979  0.5977906408678240
  0.6480234589987035  0.6010300387371000  0.0977906438678201
  0.6480234589987033  0.6010300387370987  0.5977906408678236
  0.3961988708991984  0.3434272644411547  0.1636411428841050
  0.3961988708991992  0.3434272644411545  0.6636411428841051
  0.3961988708991983  0.8434272644411566  0.1636411428841050
  0.3961988708991985  0.8434272644411561  0.6636411428841061
  0.8961988708991973  0.3434272644411532  0.1636411428841044
  0.8961988708991986  0.3434272644411536  0.6636411428841059
  0.8961988708991969  0.8434272644411560  0.1636411428841040
  0.8961988708991985  0.8434272644411567  0.6636411428841055
  0.1461988708991974  0.0934272644411561  0.1636411428841047
  0.1461988708991985  0.0934272644411540  0.6636411428841053
  0.1461988708991976  0.5934272644411566  0.1636411428841039
  0.1461988708991970  0.5934272644411559  0.6636411428841045
  0.6461988708991978  0.0934272644411545  0.1636411428841040
  0.6461988708991984  0.0934272644411556  0.6636411428841049
  0.6461988708991979  0.5934272644411557  0.1636411428841040
  0.6461988708991987  0.5934272644411559  0.6636411428841046
  0.0564774707088536  0.1033130859399325  0.1104030513610460
  0.0564774707088548  0.1033130859399314  0.6104030313610459
  0.0564774707088539  0.6033130609399351  0.1104030513610447
  0.0564774707088526  0.6033130609399358  0.6104030313610461
  0.5564774407088536  0.1033130859399316  0.1104030513610464
  0.5564774407088532  0.1033130859399317  0.6104030313610461
  0.5564774407088550  0.6033130609399351  0.1104030513610458
  0.5564774407088527  0.6033130609399368  0.6104030313610460
  0.3064774707088532  0.3533130909399300  0.1104030513610455
  0.3064774707088532  0.3533130909399318  0.6104030313610463
  0.3064774707088538  0.8533130609399358  0.1104030513610451
  0.3064774707088532  0.8533130609399362  0.6104030313610460
  0.8064774407088533  0.3533130909399320  0.1104030513610454
  0.8064774407088532  0.3533130909399319  0.6104030313610458
  0.8064774407088537  0.8533130609399354  0.1104030513610461
  0.8064774407088540  0.8533130609399372  0.6104030313610457
  0.3233281898677495  0.4227905113106942  0.1179156636117407
  0.3233281898677502  0.4227905113106919  0.6179156636117392
  0.3233281898677491  0.9227905113106899  0.1179156636117415
  0.3233281898677496  0.9227905113106896  0.6179156636117368
  0.8233281898677476  0.4227905113106930  0.1179156636117398
  0.8233281898677471  0.4227905113106931  0.6179156636117376
  0.8233281898677480  0.9227905113106905  0.1179156636117410
  0.8233281898677485  0.9227905113106883  0.6179156636117371
  0.0733281898677471  0.1727905143106918  0.1179156636117409
  0.0733281898677485  0.1727905143106911  0.6179156636117382
  0.0733281898677471  0.6727905113106908  0.1179156636117404
  0.0733281898677485  0.6727905113106883  0.6179156636117377
  0.5733281898677470  0.1727905143106945  0.1179156636117412
  0.5733281898677483  0.1727905143106903  0.6179156636117391
  0.5733281898677474  0.6727905113106902  0.1179156636117411
  0.5733281898677476  0.6727905113106887  0.6179156636117373
  0.0659084372950676  0.1313624693385397  0.1749889820332163
  0.0659084372950677  0.1313624693385398  0.6749889720332171
  0.0659084372950686  0.6313624793385428  0.1749889820332162
  0.0659084372950666  0.6313624793385415  0.6749889720332171
  0.5659084572950674  0.1313624693385397  0.1749889820332155
  0.5659084572950678  0.1313624693385387  0.6749889720332164
  0.5659084572950680  0.6313624793385435  0.1749889820332149
  0.5659084572950670  0.6313624793385416  0.6749889720332172
  0.3159084572950656  0.3813624793385384  0.1749889820332167
  0.3159084572950656  0.3813624793385371  0.6749889720332172
  0.3159084572950652  0.8813624793385413  0.1749889820332138
  0.3159084572950648  0.8813624793385413  0.6749889720332168
  0.8159084572950684  0.3813624793385386  0.1749889820332159
  0.8159084572950683  0.3813624793385383  0.6749889720332173
  0.8159084572950673  0.8813624793385426  0.1749889820332157
  0.8159084572950678  0.8813624793385411  0.6749889720332167
  0.3955952917157874  0.4346295842756768  0.3739681210620182
  0.3955952917157887  0.4346295842756789  0.8739681210620208
  0.3955952917157888  0.9346295542756760  0.3739681210620177
  0.3955952917157896  0.9346295542756743  0.8739681210620196
  0.8955952917157904  0.4346295842756791  0.3739681210620182
  0.8955952917157926  0.4346295842756772  0.8739681210620206
  0.8955952917157907  0.9346295542756744  0.3739681210620178
  0.8955952917157919  0.9346295542756760  0.8739681210620196
  0.1455952887157876  0.1846295502756798  0.3739681210620180
  0.1455952887157893  0.1846295502756766  0.8739681210620198
  0.1455952887157883  0.6846295542756752  0.3739681210620194
  0.1455952887157894  0.6846295542756753  0.8739681210620198
  0.6455952917157910  0.1846295502756773  0.3739681210620184
  0.6455952917157906  0.1846295502756784  0.8739681210620208
  0.6455952917157902  0.6846295542756746  0.3739681210620176
  0.6455952917157909  0.6846295542756737  0.8739681210620196
  0.3429726306121745  0.4021987941137875  0.3505361807037017
  0.3429726306121737  0.4021987941137865  0.8505361507037047
  0.3429726306121740  0.9021987941137846  0.3505361807037025
  0.3429726306121745  0.9021987941137851  0.8505361507037038
  0.8429726306121732  0.4021987941137850  0.3505361807037023
  0.8429726306121743  0.4021987941137847  0.8505361507037041
  0.8429726306121719  0.9021987941137853  0.3505361807037015
  0.8429726306121740  0.9021987941137837  0.8505361507037039
  0.0929726346121729  0.1521987941137862  0.3505361807037026
  0.0929726346121745  0.1521987941137871  0.8505361507037037
  0.0929726346121740  0.6521987941137847  0.3505361807037023
  0.0929726346121734  0.6521987941137846  0.8505361507037041
  0.5929726306121734  0.1521987941137869  0.3505361807037030
  0.5929726306121738  0.1521987941137853  0.8505361507037024
  0.5929726306121733  0.6521987941137839  0.3505361807037022
  0.5929726306121738  0.6521987941137853  0.8505361507037023
  0.4039710997747034  0.3907175006580428  0.3253291424701089
  0.4039710997747041  0.3907175006580424  0.8253291724701108
  0.4039710997747036  0.8907175306580422  0.3253291424701095
  0.4039710997747026  0.8907175306580424  0.8253291724701123
  0.9039710997747037  0.3907175006580432  0.3253291424701104
  0.9039710997747060  0.3907175006580428  0.8253291724701109
  0.9039710997747054  0.8907175306580413  0.3253291424701097
  0.9039710997747058  0.8907175306580414  0.8253291724701103
  0.1539711017747042  0.1407175306580423  0.3253291424701095
  0.1539711017747055  0.1407175306580436  0.8253291724701123
  0.1539711017747044  0.6407175306580407  0.3253291424701095
  0.1539711017747046  0.6407175306580414  0.8253291724701108
  0.6539710997747052  0.1407175306580438  0.3253291424701084
  0.6539710997747050  0.1407175306580437  0.8253291724701115
  0.6539710997747041  0.6407175306580408  0.3253291424701094
  0.6539710997747059  0.6407175306580404  0.8253291724701111
  0.1086976285934654  0.1085749559453950  0.4301096876942582
  0.1086976285934656  0.1085749559453934  0.9301097176942607
  0.1086976285934653  0.6085749659453925  0.4301096876942575
  0.1086976285934656  0.6085749659453914  0.9301097176942604
  0.6086976485934652  0.1085749559453943  0.4301096876942584
  0.6086976485934662  0.1085749559453947  0.9301097176942581
  0.6086976485934675  0.6085749659453930  0.4301096876942590
  0.6086976485934669  0.6085749659453922  0.9301097176942581
  0.3586976485934665  0.3585749659453934  0.4301096876942586
  0.3586976485934650  0.3585749659453956  0.9301097176942583
  0.3586976485934670  0.8585749659453925  0.4301096876942591
  0.3586976485934660  0.8585749659453916  0.9301097176942610
  0.8586976485934651  0.3585749659453953  0.4301096876942594
  0.8586976485934648  0.3585749659453929  0.9301097176942590
  0.8586976485934641  0.8585749659453917  0.4301096876942593
  0.8586976485934655  0.8585749659453916  0.9301097176942593
  0.1795066222562672  0.1111382742287244  0.4200264836371702
  0.1795066222562686  0.1111382742287251  0.9200265136371689
  0.1795066222562693  0.6111382652287264  0.4200264836371682
  0.1795066222562696  0.6111382652287256  0.9200265136371687
  0.6795065922562692  0.1111382742287246  0.4200264836371704
  0.6795065922562694  0.1111382742287246  0.9200265136371703
  0.6795065922562696  0.6111382652287263  0.4200264836371696
  0.6795065922562671  0.6111382652287248  0.9200265136371688
  0.4295066222562667  0.3611382652287224  0.4200264836371687
  0.4295066222562678  0.3611382652287208  0.9200265136371688
  0.4295066222562673  0.8611382652287247  0.4200264836371700
  0.4295066222562686  0.8611382652287253  0.9200265136371699
  0.9295065922562676  0.3611382652287224  0.4200264836371695
  0.9295065922562711  0.3611382652287214  0.9200265136371701
  0.9295065922562687  0.8611382652287256  0.4200264836371674
  0.9295065922562701  0.8611382652287251  0.9200265136371689
  0.3897076926855771  0.3161763728752303  0.3815020491189241
  0.3897076926855773  0.3161763728752305  0.8815020491189246
  0.3897076926855767  0.8161763728752329  0.3815020491189242
  0.3897076926855774  0.8161763728752321  0.8815020491189245
  0.8897076926855788  0.3161763728752299  0.3815020491189235
  0.8897076926855816  0.3161763728752306  0.8815020491189240
  0.8897076926855810  0.8161763728752329  0.3815020491189242
  0.8897076926855813  0.8161763728752317  0.8815020491189243
  0.1397076926855784  0.0661763728752317  0.3815020491189235
  0.1397076926855784  0.0661763728752321  0.8815020491189245
  0.1397076926855777  0.5661763728752334  0.3815020491189228
  0.1397076926855773  0.5661763728752333  0.8815020491189246
  0.6397076926855814  0.0661763728752317  0.3815020491189249
  0.6397076926855810  0.0661763728752325  0.8815020491189244
  0.6397076926855810  0.5661763728752326  0.3815020491189237
  0.6397076926855817  0.5661763728752323  0.8815020491189228
  0.3339158183970361  0.1063259689153594  0.3235640898470346
  0.3339158183970364  0.1063259689153580  0.8235640898470343
  0.3339158183970353  0.6063259379153608  0.3235640898470361
  0.3339158183970348  0.6063259379153603  0.8235640898470334
  0.8339158483970355  0.1063259689153596  0.3235640898470339
  0.8339158483970358  0.1063259689153564  0.8235640898470323
  0.8339158483970356  0.6063259379153594  0.3235640898470346
  0.8339158483970360  0.6063259379153595  0.8235640898470331
  0.0839158483970356  0.3563259679153575  0.3235640898470343
  0.0839158483970358  0.3563259679153591  0.8235640898470342
  0.0839158483970345  0.8563259379153605  0.3235640898470346
  0.0839158483970351  0.8563259379153599  0.8235640898470329
  0.5839158483970364  0.3563259679153590  0.3235640898470340
  0.5839158483970349  0.3563259679153581  0.8235640898470338
  0.5839158483970358  0.8563259379153603  0.3235640898470354
  0.5839158483970361  0.8563259379153597  0.8235640898470337
  0.3359267806143366  0.0977217639226255  0.3901701045189767
  0.3359267806143371  0.0977217639226273  0.8901701245189727
  0.3359267806143374  0.5977217639226273  0.3901701045189763
  0.3359267806143373  0.5977217639226291  0.8901701245189729
  0.8359267806143391  0.0977217639226273  0.3901701045189780
  0.8359267806143402  0.0977217639226268  0.8901701245189744
  0.8359267806143397  0.5977217639226279  0.3901701045189767
  0.8359267806143403  0.5977217639226269  0.8901701245189736
  0.0859267806143385  0.3477217639226240  0.3901701045189756
  0.0859267806143389  0.3477217639226239  0.8901701245189736
  0.0859267806143380  0.8477217639226277  0.3901701045189774
  0.0859267806143376  0.8477217639226291  0.8901701245189735
  0.5859267806143402  0.3477217639226242  0.3901701045189775
  0.5859267806143399  0.3477217639226241  0.8901701245189735
  0.5859267806143403  0.8477217639226273  0.3901701045189758
  0.5859267806143400  0.8477217639226273  0.8901701245189730
  0.3922930853460053  0.0877586058472791  0.3544916879523368
  0.3922930853460038  0.0877586058472792  0.8544917179523407
  0.3922930853460052  0.5877585908472787  0.3544916879523385
  0.3922930853460048  0.5877585908472781  0.8544917179523409
  0.8922930853460020  0.0877586058472789  0.3544916879523389
  0.8922930853460027  0.0877586058472789  0.8544917179523417
  0.8922930853460035  0.5877585908472784  0.3544916879523385
  0.8922930853460043  0.5877585908472790  0.8544917179523415
  0.1422930893460059  0.3377585908472788  0.3544916879523379
  0.1422930893460042  0.3377585908472798  0.8544917179523425
  0.1422930893460044  0.8377585908472798  0.3544916879523370
  0.1422930893460045  0.8377585908472790  0.8544917179523420
  0.6422930853460028  0.3377585908472779  0.3544916879523388
  0.6422930853460032  0.3377585908472789  0.8544917179523418
  0.6422930853460040  0.8377585908472789  0.3544916879523372
  0.6422930853460037  0.8377585908472791  0.8544917179523422
  0.1519720376937116  0.4236598463396619  0.3920251696660932
  0.1519720376937099  0.4236598463396629  0.8920251696660904
  0.1519720376937117  0.9236598163396630  0.3920251696660931
  0.1519720376937111  0.9236598163396633  0.8920251696660917
  0.6519720376937098  0.4236598463396622  0.3920251696660940
  0.6519720376937107  0.4236598463396612  0.8920251696660898
  0.6519720376937104  0.9236598163396627  0.3920251696660919
  0.6519720376937106  0.9236598163396631  0.8920251696660905
  0.4019720376937124  0.1736598163396618  0.3920251696660930
  0.4019720376937101  0.1736598163396643  0.8920251696660910
  0.4019720376937110  0.6736598163396632  0.3920251696660922
  0.4019720376937113  0.6736598163396627  0.8920251696660916
  0.9019720376937095  0.1736598163396630  0.3920251696660921
  0.9019720376937094  0.1736598163396610  0.8920251696660911
  0.9019720376937091  0.6736598163396630  0.3920251696660928
  0.9019720376937096  0.6736598163396622  0.8920251696660892
  0.0840303561968344  0.4395132099427297  0.3756395388237728
  0.0840303561968331  0.4395132099427295  0.8756395088237688
  0.0840303561968336  0.9395132099427244  0.3756395388237718
  0.0840303561968340  0.9395132099427248  0.8756395088237695
  0.5840303861968346  0.4395132099427305  0.3756395388237720
  0.5840303861968342  0.4395132099427290  0.8756395088237678
  0.5840303861968342  0.9395132099427254  0.3756395388237708
  0.5840303861968346  0.9395132099427249  0.8756395088237688
  0.3340303561968318  0.1895132099427302  0.3756395388237695
  0.3340303561968330  0.1895132099427288  0.8756395088237683
  0.3340303561968332  0.6895132099427260  0.3756395388237710
  0.3340303561968330  0.6895132099427250  0.8756395088237684
  0.8340303861968345  0.1895132099427280  0.3756395388237710
  0.8340303861968328  0.1895132099427284  0.8756395088237685
  0.8340303861968332  0.6895132099427252  0.3756395388237712
  0.8340303861968336  0.6895132099427252  0.8756395088237690
  0.3825892169444635  0.1834595435343421  0.3243261167798783
  0.3825892169444634  0.1834595435343423  0.8243261467798767
  0.3825892169444639  0.6834595435343439  0.3243261167798784
  0.3825892169444656  0.6834595435343426  0.8243261467798768
  0.8825892169444585  0.1834595435343425  0.3243261167798777
  0.8825892169444600  0.1834595435343396  0.8243261467798764
  0.8825892169444595  0.6834595435343438  0.3243261167798780
  0.8825892169444610  0.6834595435343442  0.8243261467798769
  0.1325892219444638  0.4334595435343407  0.3243261167798774
  0.1325892219444632  0.4334595435343426  0.8243261467798770
  0.1325892219444637  0.9334595435343425  0.3243261167798797
  0.1325892219444638  0.9334595435343431  0.8243261467798779
  0.6325892169444588  0.4334595435343429  0.3243261167798784
  0.6325892169444594  0.4334595435343425  0.8243261467798780
  0.6325892169444595  0.9334595435343453  0.3243261167798810
  0.6325892169444598  0.9334595435343434  0.8243261467798774
  0.0010269055614561  0.9855203658791180  0.1250906894269884
  0.0010269055614561  0.9855203658791182  0.6250906894269859
  0.0010269055614561  0.4855203658791173  0.1250906894269884
  0.0010269055614563  0.4855203658791173  0.6250906894269859
  0.5010269055614552  0.9855203658791181  0.1250906894269882
  0.5010269055614553  0.9855203658791178  0.6250906894269859
  0.5010269055614552  0.4855203658791173  0.1250906894269884
  0.5010269055614553  0.4855203658791173  0.6250906894269858
  0.2510269055614566  0.2355203658791208  0.1250906894269884
  0.2510269055614567  0.2355203658791207  0.6250906894269858
  0.2510269055614567  0.7355203658791156  0.1250906894269883
  0.2510269055614567  0.7355203658791157  0.6250906894269859
  0.7510269055614565  0.2355203658791207  0.1250906894269883
  0.7510269055614568  0.2355203658791207  0.6250906894269859
  0.7510269055614565  0.7355203658791160  0.1250906894269885
  0.7510269055614568  0.7355203658791160  0.6250906894269859
  0.9730621210334608  0.0252624668045610  0.3628685289357478
  0.9730621210334610  0.0252624668045610  0.8628685289357488
  0.9730621210334608  0.5252624658045587  0.3628685289357476
  0.9730621210334608  0.5252624658045587  0.8628685289357492
  0.4730621210334585  0.0252624668045610  0.3628685289357477
  0.4730621210334585  0.0252624668045610  0.8628685289357488
  0.4730621210334585  0.5252624658045587  0.3628685289357478
  0.4730621210334586  0.5252624658045587  0.8628685289357492
  0.2230621210334602  0.2752624658045587  0.3628685289357477
  0.2230621210334601  0.2752624658045587  0.8628685289357491
  0.2230621210334602  0.7752624658045610  0.3628685289357477
  0.2230621210334603  0.7752624658045610  0.8628685289357493
  0.7230621210334605  0.2752624658045587  0.3628685289357477
  0.7230621210334607  0.2752624658045587  0.8628685289357489
  0.7230621210334605  0.7752624658045610  0.3628685289357476
  0.7230621210334605  0.7752624658045610  0.8628685289357491
  0.2527681836627874  0.9564500139600394  0.3817099356339374
  0.2527681836627875  0.9564500139600394  0.8817099356339361
  0.2527681836627876  0.4564500099600398  0.3817099356339374
  0.2527681836627875  0.4564500099600398  0.8817099356339361
  0.7527681836627855  0.9564500139600394  0.3817099356339374
  0.7527681836627856  0.9564500139600394  0.8817099356339361