MAPbI3 tetragonal T=150 K               
   1.00000000000000     
    24.7458992004000002    0.0000000000000000    0.0000000000000000
     0.0000000000000000   24.7459068297999991    0.0000000000000000
     0.0000000000000000    0.0000000000000000   25.4960002898999996
   C    H    I    N    Pb
    64   384   192    64    64
Direct
  0.1335465441745872  0.1046316018518322  0.1385966378033447
  0.1335465441745871  0.1046316018518323  0.6385966678033387
  0.1335465441745871  0.6046315938518321  0.1385966378033447
  0.1335465441745872  0.6046315938518323  0.6385966678033388
  0.6335465591745850  0.1046316018518323  0.1385966378033447
  0.6335465591745850  0.1046316018518323  0.6385966678033388
  0.6335465591745850  0.6046315938518321  0.1385966378033447
  0.6335465591745850  0.6046315938518322  0.6385966678033387
  0.3835465591745853  0.3546315938518314  0.1385966378033447
  0.3835465591745854  0.3546315938518314  0.6385966678033388
  0.3835465591745853  0.8546315938518321  0.1385966378033447
  0.3835465591745853  0.8546315938518322  0.6385966678033387
  0.8835465591745850  0.3546315938518314  0.1385966378033447
  0.8835465591745850  0.3546315938518314  0.6385966678033389
  0.8835465591745850  0.8546315938518322  0.1385966378033447
  0.8835465591745850  0.8546315938518321  0.6385966678033388
  0.1533815209696655  0.3800678208204284  0.1290094854909907
  0.1533815209696655  0.3800678208204284  0.6290095004909877
  0.1533815209696655  0.8800678508204225  0.1290094854909907
  0.1533815209696656  0.8800678508204225  0.6290095004909877
  0.6533815349696670  0.3800678208204284  0.1290094854909907
  0.6533815349696671  0.3800678208204284  0.6290095004909877
  0.6533815349696670  0.8800678508204225  0.1290094854909907
  0.6533815349696670  0.8800678508204225  0.6290095004909876
  0.4033815349696669  0.1300678508204239  0.1290094854909907
  0.4033815349696669  0.1300678508204239  0.6290095004909877
  0.4033815349696669  0.6300678508204225  0.1290094854909907
  0.4033815349696669  0.6300678508204225  0.6290095004909877
  0.9033815349696670  0.1300678508204239  0.1290094854909907
  0.9033815349696671  0.1300678508204239  0.6290095004909876
  0.9033815349696670  0.6300678508204225  0.1290094854909907
  0.9033815349696671  0.6300678508204225  0.6290095004909877
  0.1546399388958126  0.1270601780830102  0.3794534546306989
  0.1546399388958126  0.1270601780830102  0.8794534546306995
  0.1546399388958126  0.6270601850830139  0.3794534546306989
  0.1546399388958126  0.6270601850830139  0.8794534546306995
  0.6546399238958145  0.1270601780830102  0.3794534546306989
  0.6546399238958145  0.1270601780830102  0.8794534546306995
  0.6546399238958145  0.6270601850830139  0.3794534546306989
  0.6546399238958145  0.6270601850830138  0.8794534546306992
  0.4046399238958145  0.3770601850830147  0.3794534546306989
  0.4046399238958145  0.3770601850830147  0.8794534546306995
  0.4046399238958145  0.8770601850830139  0.3794534546306989
  0.4046399238958145  0.8770601850830139  0.8794534546306991
  0.9046399238958145  0.3770601850830147  0.3794534546306989
  0.9046399238958145  0.3770601850830147  0.8794534546306995
  0.9046399238958145  0.8770601850830139  0.3794534546306990
  0.9046399238958145  0.8770601850830138  0.8794534546306991
  0.1323367374334617  0.3960051339005470  0.3880102822694353
  0.1323367374334616  0.3960051339005470  0.8880102522694341
  0.1323367374334616  0.8960051339005455  0.3880102822694352
  0.1323367374334616  0.8960051339005455  0.8880102522694340
  0.6323367674334633  0.3960051339005470  0.3880102822694352
  0.6323367674334633  0.3960051339005470  0.8880102522694341
  0.6323367674334633  0.8960051339005455  0.3880102822694352
  0.6323367674334633  0.8960051339005455  0.8880102522694341
  0.3823367374334625  0.1460051339005467  0.3880102822694353
  0.3823367374334625  0.1460051339005466  0.8880102522694341
  0.3823367374334625  0.6460051339005455  0.3880102822694352
  0.3823367374334625  0.6460051339005455  0.8880102522694341
  0.8823367674334633  0.1460051339005467  0.3880102822694353
  0.8823367674334633  0.1460051339005467  0.8880102522694341
  0.8823367674334633  0.6460051339005455  0.3880102822694353
  0.8823367674334633  0.6460051339005455  0.8880102522694341
  0.4025727592721105  0.1157855479956686  0.1696193177359465
  0.4025727592721104  0.1157855479956686  0.6696192957359447
  0.4025727592721105  0.6157855479956680  0.1696193177359467
  0.4025727592721105  0.6157855479956680  0.6696192957359449
  0.9025727292721158  0.1157855479956686  0.1696193177359464
  0.9025727292721158  0.1157855479956687  0.6696192957359448
  0.9025727292721158  0.6157855479956680  0.1696193177359467
  0.9025727292721158  0.6157855479956680  0.6696192957359447
  0.1525727292721145  0.3657855479956684  0.1696193177359467
  0.1525727292721147  0.3657855479956684  0.6696192957359447
  0.1525727292721146  0.8657855479956680  0.1696193177359465
  0.1525727292721146  0.8657855479956680  0.6696192957359447
  0.6525727292721158  0.3657855479956684  0.1696193177359467
  0.6525727292721158  0.3657855479956684  0.6696192957359447
  0.6525727292721158  0.8657855479956679  0.1696193177359466
  0.6525727292721158  0.8657855479956680  0.6696192957359449
  0.1648683782667111  0.4226498613835885  0.1283115060019662
  0.1648683782667111  0.4226498613835886  0.6283115210019716
  0.1648683782667111  0.9226498913835913  0.1283115060019662
  0.1648683782667111  0.9226498913835913  0.6283115210019716
  0.6648683482667094  0.4226498613835885  0.1283115060019662
  0.6648683482667094  0.4226498613835886  0.6283115210019716
  0.6648683482667094  0.9226498913835913  0.1283115060019661
  0.6648683482667096  0.9226498913835913  0.6283115210019716
  0.4148683782667112  0.1726498913835915  0.1283115060019662
  0.4148683782667111  0.1726498913835916  0.6283115210019716
  0.4148683782667112  0.6726498913835913  0.1283115060019662
  0.4148683782667111  0.6726498913835913  0.6283115210019716
  0.9148683482667095  0.1726498913835915  0.1283115060019662
  0.9148683482667094  0.1726498913835916  0.6283115210019716
  0.9148683482667095  0.6726498913835913  0.1283115060019662
  0.9148683482667092  0.6726498913835913  0.6283115210019716
  0.1822651044231863  0.3565799318691676  0.1058675786500142
  0.1822651044231863  0.3565799318691676  0.6058675856500095
  0.1822651044231863  0.8565799618691704  0.1058675786500141
  0.1822651044231863  0.8565799618691704  0.6058675856500095
  0.6822651194231841  0.3565799318691676  0.1058675786500141
  0.6822651194231839  0.3565799318691676  0.6058675856500095
  0.6822651194231841  0.8565799618691704  0.1058675786500141
  0.6822651194231838  0.8565799618691704  0.6058675856500095
  0.4322651194231919  0.1065799618691691  0.1058675786500141
  0.4322651194231916  0.1065799618691691  0.6058675856500096
  0.4322651194231917  0.6065799618691704  0.1058675786500141
  0.4322651194231917  0.6065799618691704  0.6058675856500095
  0.9322651194231841  0.1065799618691691  0.1058675786500141
  0.9322651194231841  0.1065799618691691  0.6058675856500095
  0.9322651194231841  0.6065799618691704  0.1058675786500141
  0.9322651194231841  0.6065799618691704  0.6058675856500095
  0.3214554543842790  0.1526670045072162  0.1231580287456196
  0.3214554543842791  0.1526670045072162  0.6231580287456190
  0.3214554543842789  0.6526669745072154  0.1231580287456195
  0.3214554543842792  0.6526669745072154  0.6231580287456189
  0.8214554543842786  0.1526670045072162  0.1231580287456196
  0.8214554543842787  0.1526670045072161  0.6231580287456189
  0.8214554543842787  0.6526669745072154  0.1231580287456196
  0.8214554543842787  0.6526669745072156  0.6231580287456190
  0.0714554543842794  0.4026670045072165  0.1231580287456196
  0.0714554543842794  0.4026670045072165  0.6231580287456190
  0.0714554543842794  0.9026669745072154  0.1231580287456195
  0.0714554543842794  0.9026669745072156  0.6231580287456190
  0.5714554543842787  0.4026670045072165  0.1231580287456196
  0.5714554543842787  0.4026670045072165  0.6231580287456189
  0.5714554543842787  0.9026669745072156  0.1231580287456196
  0.5714554543842786  0.9026669745072154  0.6231580287456190
  0.3318655135315280  0.0870572075185481  0.1120692586910769
  0.3318655135315280  0.0870572075185481  0.6120692706910779
  0.3318655135315280  0.5870572075185484  0.1120692586910769
  0.3318655135315282  0.5870572075185484  0.6120692706910777
  0.8318655135315278  0.0870572075185482  0.1120692586910769
  0.8318655135315278  0.0870572075185481  0.6120692706910779
  0.8318655135315278  0.5870572075185484  0.1120692586910769
  0.8318655135315278  0.5870572075185484  0.6120692706910777
  0.0818655135315277  0.3370572075185481  0.1120692586910769
  0.0818655135315278  0.3370572075185481  0.6120692706910777
  0.0818655135315278  0.8370572075185484  0.1120692586910769
  0.0818655135315278  0.8370572075185484  0.6120692706910777
  0.5818655135315278  0.3370572075185481  0.1120692586910769
  0.5818655135315278  0.3370572075185481  0.6120692706910777
  0.5818655135315278  0.8370572075185482  0.1120692586910768
  0.5818655135315278  0.8370572075185483  0.6120692706910780
  0.3478103730268032  0.1324371782600190  0.0663674435947720
  0.3478103730268032  0.1324371782600191  0.5663674205947747
  0.3478103730268031  0.6324371782600179  0.0663674435947719
  0.3478103730268032  0.6324371782600179  0.5663674205947746
  0.8478103730268041  0.1324371782600192  0.0663674435947720
  0.8478103730268041  0.1324371782600191  0.5663674205947747
  0.8478103730268041  0.6324371782600179  0.0663674435947719
  0.8478103730268041  0.6324371782600178  0.5663674205947747
  0.0978103730268033  0.3824371782600197  0.0663674435947719
  0.0978103730268032  0.3824371782600194  0.5663674205947747
  0.0978103730268033  0.8824371782600178  0.0663674435947719
  0.0978103730268032  0.8824371782600178  0.5663674205947747
  0.5978103730268041  0.3824371782600195  0.0663674435947720
  0.5978103730268041  0.3824371782600194  0.5663674205947747
  0.5978103730268041  0.8824371782600178  0.0663674435947721
  0.5978103730268041  0.8824371782600178  0.5663674205947747
  0.3595145418232545  0.3944045031229932  0.0697297302665841
  0.3595145418232545  0.3944045031229931  0.5697297222665828
  0.3595145418232545  0.8944045031229929  0.0697297302665841
  0.3595145418232545  0.8944045031229929  0.5697297222665828
  0.8595145418232556  0.3944045031229931  0.0697297302665841
  0.8595145418232556  0.3944045031229932  0.5697297222665827
  0.8595145418232556  0.8944045031229929  0.0697297302665841
  0.8595145418232556  0.8944045031229929  0.5697297222665828
  0.1095145418232545  0.1444045031229934  0.0697297302665841
  0.1095145418232545  0.1444045031229934  0.5697297222665828
  0.1095145418232545  0.6444045031229929  0.0697297302665841
  0.1095145418232545  0.6444045031229929  0.5697297222665827
  0.6095145418232556  0.1444045031229934  0.0697297302665841
  0.6095145418232556  0.1444045031229934  0.5697297222665828
  0.6095145418232556  0.6444045031229929  0.0697297302665841
  0.6095145418232556  0.6444045031229929  0.5697297222665828
  0.4124251770569518  0.4238399871919991  0.0995905612366135
  0.4124251770569518  0.4238399871919991  0.5995905462366080
  0.4124251770569518  0.9238399871920002  0.0995905612366136
  0.4124251770569518  0.9238399871920001  0.5995905462366080
  0.9124251470569504  0.4238399871919991  0.0995905612366136
  0.9124251470569504  0.4238399871919991  0.5995905462366081
  0.9124251470569505  0.9238399871920001  0.0995905612366135
  0.9124251470569504  0.9238399871920002  0.5995905462366081
  0.1624251470569491  0.1738399871919995  0.0995905612366136
  0.1624251470569491  0.1738399871919996  0.5995905462366081
  0.1624251470569491  0.6738399871920001  0.0995905612366137
  0.1624251470569491  0.6738399871920001  0.5995905462366081
  0.6624251470569505  0.1738399871919995  0.0995905612366135
  0.6624251470569504  0.1738399871919996  0.5995905462366081
  0.6624251470569504  0.6738399871920002  0.0995905612366135
  0.6624251470569505  0.6738399871920001  0.5995905462366081
  0.3492047361957750  0.4314338689555606  0.1232328947223913
  0.3492047361957750  0.4314338689555606  0.6232329247223948
  0.3492047361957750  0.9314338689555595  0.1232328947223913
  0.3492047361957750  0.9314338689555594  0.6232329247223948
  0.8492047061957719  0.4314338689555606  0.1232328947223913
  0.8492047061957719  0.4314338689555607  0.6232329247223948
  0.8492047061957719  0.9314338689555591  0.1232328947223913
  0.8492047061957719  0.9314338689555591  0.6232329247223948
  0.0992047061957722  0.1814338689555600  0.1232328947223913
  0.0992047061957721  0.1814338689555600  0.6232329247223948
  0.0992047061957721  0.6814338689555592  0.1232328947223913
  0.0992047061957722  0.6814338689555590  0.6232329247223948
  0.5992047061957719  0.1814338689555599  0.1232328947223913
  0.5992047061957719  0.1814338689555599  0.6232329247223948
  0.5992047061957719  0.6814338689555591  0.1232328947223913
  0.5992047061957719  0.6814338689555591  0.6232329247223948
  0.1609407093252610  0.0767499168803917  0.1184327488221082
  0.1609407093252610  0.0767499168803917  0.6184327718221075
  0.1609407093252610  0.5767498868803885  0.1184327488221082
  0.1609407093252610  0.5767498868803885  0.6184327718221075
  0.6609407093252617  0.0767499168803917  0.1184327488221082
  0.6609407093252617  0.0767499168803917  0.6184327718221078
  0.6609407093252617  0.5767498868803885  0.1184327488221081
  0.6609407093252617  0.5767498868803885  0.6184327718221077
  0.4109407093252607  0.3267499168803913  0.1184327488221082
  0.4109407093252606  0.3267499168803914  0.6184327718221077
  0.4109407093252606  0.8267498868803886  0.1184327488221082
  0.4109407093252606  0.8267498868803885  0.6184327718221077
  0.9109407093252617  0.3267499168803914  0.1184327488221082
  0.9109407093252617  0.3267499168803914  0.6184327718221077
  0.9109407093252617  0.8267498868803885  0.1184327488221082
  0.9109407093252617  0.8267498868803886  0.6184327718221078
  0.3442791296335025  0.3354752271569574  0.1452385161490184
  0.3442791296335027  0.3354752271569574  0.6452385381490213
  0.3442791296335025  0.8354752571569596  0.1452385161490184
  0.3442791296335027  0.8354752571569596  0.6452385381490213
  0.8442790996335051  0.3354752271569574  0.1452385161490184
  0.8442790996335051  0.3354752271569574  0.6452385381490213
  0.8442790996335051  0.8354752571569596  0.1452385161490184
  0.8442790996335051  0.8354752571569596  0.6452385381490214
  0.0942790996335066  0.0854752571569598  0.1452385161490184
  0.0942790996335066  0.0854752571569597  0.6452385381490213
  0.0942790996335066  0.5854752571569596  0.1452385161490184
  0.0942790996335066  0.5854752571569596  0.6452385381490213
  0.5942790996335051  0.0854752571569598  0.1452385161490184
  0.5942790996335051  0.0854752571569596  0.6452385381490213
  0.5942790996335051  0.5854752571569596  0.1452385161490184
  0.5942790996335051  0.5854752571569596  0.6452385381490213
  0.1504507628147256  0.1166162698773662  0.1765074320159733
  0.1504507628147256  0.1166162698773662  0.6765074320159725
  0.1504507628147256  0.6166162768773705  0.1765074320159733
  0.1504507628147256  0.6166162768773705  0.6765074320159725
  0.6504507478147203  0.1166162698773662  0.1765074320159733
  0.6504507478147203  0.1166162698773662  0.6765074320159725
  0.6504507478147203  0.6166162768773705  0.1765074320159733
  0.6504507478147203  0.6166162768773705  0.6765074320159725
  0.4004507478147212  0.3666162768773704  0.1765074320159733
  0.4004507478147212  0.3666162768773705  0.6765074320159725
  0.4004507478147212  0.8666162768773705  0.1765074320159733
  0.4004507478147212  0.8666162768773705  0.6765074320159725
  0.9004507478147203  0.3666162768773706  0.1765074320159733
  0.9004507478147203  0.3666162768773704  0.6765074320159725
  0.9004507478147203  0.8666162768773705  0.1765074320159733
  0.9004507478147203  0.8666162768773705  0.6765074320159725
  0.3510668985417273  0.3751712183562036  0.3151102044340994
  0.3510668985417273  0.3751712183562036  0.8151102344341020
  0.3510668985417273  0.8751711893561976  0.3151102044340995
  0.3510668985417273  0.8751711893561976  0.8151102344341020
  0.8510668985417285  0.3751712183562036  0.3151102044340995
  0.8510668985417283  0.3751712183562036  0.8151102344341020
  0.8510668985417283  0.8751711893561976  0.3151102044340993
  0.8510668985417283  0.8751711893561976  0.8151102344341020
  0.1010668985417274  0.1251711893561973  0.3151102044340992
  0.1010668985417274  0.1251711893561973  0.8151102344341020
  0.1010668985417274  0.6251711893561976  0.3151102044340992
  0.1010668985417274  0.6251711893561976  0.8151102344341020
  0.6010668985417283  0.1251711893561973  0.3151102044340994
  0.6010668985417283  0.1251711893561973  0.8151102344341020
  0.6010668985417286  0.6251711893561976  0.3151102044340994
  0.6010668985417283  0.6251711893561978  0.8151102344341020
  0.3277668326287850  0.4103859050526491  0.3657368941396271
  0.3277668326287851  0.4103859050526490  0.8657368641396326
  0.3277668326287851  0.9103859050526492  0.3657368941396271
  0.3277668326287851  0.9103859050526492  0.8657368641396325
  0.8277668326287843  0.4103859050526491  0.3657368941396271
  0.8277668326287844  0.4103859050526490  0.8657368641396325
  0.8277668326287845  0.9103859050526492  0.3657368941396271
  0.8277668326287845  0.9103859050526492  0.8657368641396325
  0.0777668326287848  0.1603859050526485  0.3657368941396270
  0.0777668326287848  0.1603859050526485  0.8657368641396325
  0.0777668326287848  0.6603859050526492  0.3657368941396270
  0.0777668326287848  0.6603859050526492  0.8657368641396326
  0.5777668326287843  0.1603859050526485  0.3657368941396270
  0.5777668326287846  0.1603859050526485  0.8657368641396325
  0.5777668326287843  0.6603859050526492  0.3657368941396269
  0.5777668326287845  0.6603859050526492  0.8657368641396325
  0.3269644618879532  0.3430833099700589  0.3676933949658437
  0.3269644618879532  0.3430833099700589  0.8676933649658416
  0.3269644618879533  0.8430832799700637  0.3676933949658437
  0.3269644618879532  0.8430832799700636  0.8676933649658416
  0.8269644918879538  0.3430833099700589  0.3676933949658437
  0.8269644918879538  0.3430833099700589  0.8676933649658416
  0.8269644918879538  0.8430832799700636  0.3676933949658437
  0.8269644918879538  0.8430832799700635  0.8676933649658416
  0.0769644918879547  0.0930832799700640  0.3676933949658437
  0.0769644918879547  0.0930832799700639  0.8676933649658416
  0.0769644918879547  0.5930832799700636  0.3676933949658437
  0.0769644918879547  0.5930832799700636  0.8676933649658417
  0.5769644918879538  0.0930832799700640  0.3676933949658437
  0.5769644918879538  0.0930832799700639  0.8676933649658416
  0.5769644918879538  0.5930832799700636  0.3676933949658437
  0.5769644918879538  0.5930832799700636  0.8676933649658416
  0.1801604501862848  0.1565032051589587  0.3591948476545181
  0.1801604501862847  0.1565032051589587  0.8591948476545189
  0.1801604501862850  0.6565032201589566  0.3591948476545180
  0.1801604501862850  0.6565032201589567  0.8591948476545189
  0.6801604501862841  0.1565032051589587  0.3591948476545183
  0.6801604501862843  0.1565032051589587  0.8591948476545189
  0.6801604501862843  0.6565032201589566  0.3591948476545181
  0.6801604501862841  0.6565032201589566  0.8591948476545188
  0.4301604501862847  0.4065032201589565  0.3591948476545180
  0.4301604501862849  0.4065032201589565  0.8591948476545188
  0.4301604501862848  0.9065032201589566  0.3591948476545183
  0.4301604501862847  0.9065032201589567  0.8591948476545189
  0.9301604501862843  0.4065032201589565  0.3591948476545180
  0.9301604501862843  0.4065032201589565  0.8591948476545189
  0.9301604501862842  0.9065032201589566  0.3591948476545181
  0.9301604501862843  0.9065032201589567  0.8591948476545189
  0.1721801478853446  0.0867269866810431  0.3758338300681069
  0.1721801478853446  0.0867269866810431  0.8758338300681081
  0.1721801478853445  0.5867269646810402  0.3758338300681069
  0.1721801478853446  0.5867269646810404  0.8758338300681081
  0.6721801478853452  0.0867269866810430  0.3758338300681068
  0.6721801478853454  0.0867269866810431  0.8758338300681081
  0.6721801478853452  0.5867269646810404  0.3758338300681069
  0.6721801478853455  0.5867269646810404  0.8758338300681081
  0.4221801478853445  0.3367269946810441  0.3758338300681068
  0.4221801478853445  0.3367269946810441  0.8758338300681081
  0.4221801478853446  0.8367270246810453  0.3758338300681069
  0.4221801478853445  0.8367270246810453  0.8758338300681081
  0.9221801478853452  0.3367269946810439  0.3758338300681069
  0.9221801478853455  0.3367269946810441  0.8758338300681081
  0.9221801478853452  0.8367270246810453  0.3758338300681069
  0.9221801478853452  0.8367270246810453  0.8758338300681081
  0.4009515010184440  0.3876134558304339  0.4209479643718233
  0.4009515010184439  0.3876134558304339  0.9209479933718294
  0.4009515010184440  0.8876134558304349  0.4209479643718235
  0.4009515010184440  0.8876134558304349  0.9209479933718294
  0.9009515010184429  0.3876134558304338  0.4209479643718232
  0.9009515010184429  0.3876134558304339  0.9209479933718294
  0.9009515010184429  0.8876134558304349  0.4209479643718233
  0.9009515010184429  0.8876134558304349  0.9209479933718294
  0.1509515010184437  0.1376134558304344  0.4209479643718232
  0.1509515010184437  0.1376134558304344  0.9209479933718295
  0.1509515010184437  0.6376134558304349  0.4209479643718232
  0.1509515010184437  0.6376134558304349  0.9209479933718294
  0.6509515010184429  0.1376134558304344  0.4209479643718235
  0.6509515010184429  0.1376134558304344  0.9209479933718294
  0.6509515010184429  0.6376134558304349  0.4209479643718231
  0.6509515010184429  0.6376134558304349  0.9209479933718294
  0.4121759346478008  0.0783452421955004  0.3472113026302052
  0.4121759346478008  0.0783452421955005  0.8472113026302053
  0.4121759346478010  0.5783452421955010  0.3472113026302052
  0.4121759346478008  0.5783452421955011  0.8472113026302053
  0.9121759346478003  0.0783452421955005  0.3472113026302052
  0.9121759346478002  0.0783452421955005  0.8472113026302053
  0.9121759346478002  0.5783452421955011  0.3472113026302051
  0.9121759346478002  0.5783452421955011  0.8472113026302053
  0.1621759346478003  0.3283452421955009  0.3472113026302053
  0.1621759346478003  0.3283452421955010  0.8472113026302053
  0.1621759346478003  0.8283452421955011  0.3472113026302052
  0.1621759346478003  0.8283452421955011  0.8472113026302053
  0.6621759346478002  0.3283452421955008  0.3472113026302052
  0.6621759346478002  0.3283452421955008  0.8472113026302053
  0.6621759346478002  0.8283452421955011  0.3472113026302052
  0.6621759346478001  0.8283452421955011  0.8472113026302053
  0.3581671823777561  0.1070756508681441  0.3186987161436006
  0.3581671823777561  0.1070756508681441  0.8186987461436031
  0.3581671823777561  0.6070756658681425  0.3186987161436005
  0.3581671823777561  0.6070756658681425  0.8186987461436031
  0.8581671823777580  0.1070756508681441  0.3186987161436005
  0.8581671823777580  0.1070756508681441  0.8186987461436031
  0.8581671823777580  0.6070756658681424  0.3186987161436005
  0.8581671823777580  0.6070756658681424  0.8186987461436031
  0.1081671823777570  0.3570756658681418  0.3186987161436005
  0.1081671823777570  0.3570756658681418  0.8186987461436031
  0.1081671823777570  0.8570756658681424  0.3186987161436006
  0.1081671823777570  0.8570756658681424  0.8186987461436031
  0.6081671823777580  0.3570756658681417  0.3186987161436005
  0.6081671823777580  0.3570756658681419  0.8186987461436031
  0.6081671823777580  0.8570756658681424  0.3186987161436006
  0.6081671823777580  0.8570756658681424  0.8186987461436031
  0.3493961919183005  0.0687938943611867  0.3715761145016097
  0.3493961919183005  0.0687938943611867  0.8715761145016110
  0.3493961919183005  0.5687939093611910  0.3715761145016096
  0.3493961919183005  0.5687939093611910  0.8715761145016110
  0.8493961919183007  0.0687938943611867  0.3715761145016096
  0.8493961919183007  0.0687938943611867  0.8715761145016110
  0.8493961919183007  0.5687939093611909  0.3715761145016096
  0.8493961919183007  0.5687939093611910  0.8715761145016110
  0.0993961919183006  0.3187939093611920  0.3715761145016098
  0.0993961919183006  0.3187939093611920  0.8715761145016110
  0.0993961919183007  0.8187939093611910  0.3715761145016096
  0.0993961919183007  0.8187939093611910  0.8715761145016110
  0.5993961919183007  0.3187939093611920  0.3715761145016096
  0.5993961919183007  0.3187939093611919  0.8715761145016110
  0.5993961919183007  0.8187939093611910  0.3715761145016099
  0.5993961919183007  0.8187939093611910  0.8715761145016110
  0.1587399437469760  0.4249886088516042  0.3680685953153934
  0.1587399437469760  0.4249886088516042  0.8680685953153926
  0.1587399437469760  0.9249886088516033  0.3680685953153934
  0.1587399437469760  0.9249886088516034  0.8680685953153926
  0.6587399727469758  0.4249886088516042  0.3680685953153934
  0.6587399727469758  0.4249886088516042  0.8680685953153927
  0.6587399727469758  0.9249886088516034  0.3680685953153934
  0.6587399727469758  0.9249886088516034  0.8680685953153926
  0.4087399437469761  0.1749886088516036  0.3680685953153934
  0.4087399437469761  0.1749886088516036  0.8680685953153926
  0.4087399437469761  0.6749886088516033  0.3680685953153934
  0.4087399437469761  0.6749886088516033  0.8680685953153926
  0.9087399727469758  0.1749886088516037  0.3680685953153934
  0.9087399727469758  0.1749886088516037  0.8680685953153926
  0.9087399727469758  0.6749886088516036  0.3680685953153934
  0.9087399727469758  0.6749886088516034  0.8680685953153926
  0.1502530421400373  0.3834412599846745  0.4253145252816801
  0.1502530421400374  0.3834412599846745  0.9253145252816790
  0.1502530421400373  0.8834412599846747  0.4253145252816800
  0.1502530421400373  0.8834412599846748  0.9253145252816790
  0.6502530421400377  0.3834412599846745  0.4253145252816800
  0.6502530421400377  0.3834412599846745  0.9253145252816795
  0.6502530421400377  0.8834412599846746  0.4253145252816801
  0.6502530421400377  0.8834412599846747  0.9253145252816790
  0.4002530421400369  0.1334412599846749  0.4253145252816801
  0.4002530421400370  0.1334412599846748  0.9253145252816790
  0.4002530421400369  0.6334412599846748  0.4253145252816800
  0.4002530421400370  0.6334412599846746  0.9253145252816793
  0.9002530421400377  0.1334412599846749  0.4253145252816800
  0.9002530421400377  0.1334412599846748  0.9253145252816790
  0.9002530421400377  0.6334412599846746  0.4253145252816801
  0.9002530421400377  0.6334412599846748  0.9253145252816793
  0.3427438393864993  0.1640001914625363  0.3958410130022663
  0.3427438393864993  0.1640001914625363  0.8958410130022669
  0.3427438393864994  0.6640002064625331  0.3958410130022664
  0.3427438393864994  0.6640002064625332  0.8958410130022669
  0.8427438393864995  0.1640001914625363  0.3958410130022664
  0.8427438393864995  0.1640001914625363  0.8958410130022669
  0.8427438393864995  0.6640002064625332  0.3958410130022664
  0.8427438393864995  0.6640002064625332  0.8958410130022669
  0.0927438393864995  0.4140002064625340  0.3958410130022664
  0.0927438393864995  0.4140002064625340  0.8958410130022669
  0.0927438393864995  0.9140002064625332  0.3958410130022664
  0.0927438393864995  0.9140002064625331  0.8958410130022669
  0.5927438393864995  0.4140002064625341  0.3958410130022664
  0.5927438393864995  0.4140002064625340  0.8958410130022669
  0.5927438393864994  0.9140002064625332  0.3958410130022664
  0.5927438393864994  0.9140002064625332  0.8958410130022669
  0.9960458035543659  0.9909282110243374  0.1267447327875380
  0.9960458035543659  0.9909282110243374  0.6267447327875397
  0.9960458035543659  0.4909282110243386  0.1267447327875380
  0.9960458035543659  0.4909282110243386  0.6267447327875397
  0.4960458035543649  0.9909282110243374  0.1267447327875380
  0.4960458035543649  0.9909282110243374  0.6267447327875397
  0.4960458035543649  0.4909282110243386  0.1267447327875380
  0.4960458035543649  0.4909282110243386  0.6267447327875397
  0.2460458035543654  0.2409282110243383  0.1267447327875380
  0.2460458035543654  0.2409282110243383  0.6267447327875397
  0.2460458035543654  0.7409282110243374  0.1267447327875380
  0.2460458035543654  0.7409282110243374  0.6267447327875397
  0.7460458035543659  0.2409282110243383  0.1267447327875380
  0.7460458035543659  0.2409282110243383  0.6267447327875397
  0.7460458035543659  0.7409282110243374  0.1267447327875380
  0.7460458035543659  0.7409282110243374  0.6267447327875397
  0.9946769366291318  0.0079656147655467  0.3762353725744869
  0.9946769366291318  0.0079656147655467  0.8762353725744864
  0.9946769366291318  0.5079656147655467  0.3762353725744869
  0.9946769366291318  0.5079656147655467  0.8762353725744864
  0.4946769366291306  0.0079656147655467  0.3762353725744869
  0.4946769366291306  0.0079656147655467  0.8762353725744864
  0.4946769366291306  0.5079656147655467  0.3762353725744869
  0.4946769366291306  0.5079656147655467  0.8762353725744864
  0.2446769366291312  0.2579656147655473  0.3762353725744869
  0.2446769366291312  0.2579656147655473  0.8762353725744864
  0.2446769366291312  0.7579656147655467  0.3762353725744869
  0.2446769366291312  0.7579656147655467  0.8762353725744864
  0.7446769366291318  0.2579656147655473  0.3762353725744869
  0.7446769366291318  0.2579656147655475  0.8762353725744864
  0.7446769366291318  0.7579656147655467  0.3762353725744869
  0.7446769366291318  0.7579656147655467  0.8762353725744864
  0.2611290886148433  0.0107393322673237  0.3641413668292853
  0.2611290886148433  0.0107393322673237  0.8641413668292861
  0.2611290886148433  0.5107393322673223  0.3641413668292853
  0.2611290886148433  0.5107393322673223  0.8641413668292861
  0.7611290886148445  0.0107393322673237  0.3641413668292853
  0.7611290886148445  0.0107393322673237  0.8641413668292861