MAPbI3 tetragonal T=300 K               
   1.00000000000000     
    25.0541992188000009    0.0000000000000000    0.0000000000000000
     0.0000000000000000   25.0542068481000015    0.0000000000000000
     0.0000000000000000    0.0000000000000000   25.3479995727999992
   C    H    I    N    Pb
    64   384   192    64    64
Direct
  0.1434443144750394  0.1226478160040902  0.1457958758175301
  0.1434356190952972  0.1226152290395398  0.6457925355351867
  0.1434260091271439  0.6226482379897450  0.1457933787914987
  0.1434337219214902  0.6226532586863629  0.6457879666108690
  0.6434621615695556  0.1226471993258278  0.1458033552871538
  0.6434095134948351  0.1226183521125527  0.6457992443364098
  0.6434292159568440  0.6226253926853447  0.1457858018297322
  0.6434506569944352  0.6226455166342502  0.6457968777664108
  0.3934089554129230  0.3706160352332284  0.1517530287174791
  0.3934013545506773  0.3705956339365457  0.6517482419607166
  0.3934222068021425  0.8706345593708873  0.1517400190908272
  0.3934096404434289  0.8705969839375975  0.6517602175089638
  0.8934177558800134  0.3706222007241893  0.1517432013933674
  0.8934015330868159  0.3705884187955502  0.6517694112856416
  0.8933933261586062  0.8705810363756393  0.1517685724649633
  0.8934035942311580  0.8706127102733979  0.6517491185972389
  0.1273848003447669  0.3918173582031501  0.1040573169414280
  0.1273952030539822  0.3917774716542093  0.6040958764217804
  0.1274011830115113  0.8918221839465410  0.1040686372228759
  0.1273880509100038  0.8917887227644608  0.6040836710787946
  0.6273951698981783  0.3917867851069886  0.1040900665811202
  0.6273888214709328  0.3917657999862379  0.6040844912687627
  0.6273950687646925  0.8917818575975803  0.1040795785223286
  0.6273955722094720  0.8917718937344933  0.6040903495575374
  0.3773502980820663  0.1404262217400389  0.0980965078486533
  0.3773382211035654  0.1404153448940831  0.5980785898152594
  0.3773393055105070  0.6404185430019864  0.0980672704434469
  0.3773274361606107  0.6404269342917898  0.5980818474009085
  0.8773378407351872  0.1404303119630424  0.0980928674069371
  0.8773442676659560  0.1404072745724980  0.5980881686104494
  0.8773414238269114  0.6404209945509910  0.0980915055911461
  0.8773279333713033  0.6404065267422629  0.5980691518912877
  0.1276739170650725  0.1054095519914049  0.3626413897456887
  0.1276763915152114  0.1053996505254877  0.8626861019454929
  0.1276688651691430  0.6054072288030257  0.3627112563108778
  0.1276687540021730  0.6053760071661900  0.8626048350921051
  0.6276658272664642  0.1054207557092425  0.3626628293714070
  0.6276609272806583  0.1053983210752324  0.8625808442923103
  0.6276776631855250  0.6054018833776578  0.3626024458577197
  0.6276703933311462  0.6054033995667837  0.8626522674146109
  0.3761508153115009  0.3561116484501272  0.3510441842086511
  0.3761396128810338  0.3561161433303930  0.8510328841059671
  0.3761475065599912  0.8561289750143536  0.3510393633451550
  0.3761355296839519  0.8561331620114506  0.8510112820241589
  0.8761415933759840  0.3561347318464299  0.3510228701684807
  0.8761409909387775  0.3561045487691507  0.8510501231870146
  0.8761525627528713  0.8561099343780303  0.3510410530447579
  0.8761389093123871  0.8561270646125964  0.8510296190637554
  0.1467477407158429  0.3632220760480764  0.3912528237871908
  0.1467299195740495  0.3631964591673216  0.8912470124104633
  0.1467419507914825  0.8632149854826497  0.3912557380072043
  0.1467306846759892  0.8632251853606785  0.8912485772747121
  0.6467187555700534  0.3632207151287061  0.3912592643119808
  0.6467422745407773  0.3632180563646693  0.8912344657575986
  0.6467382167623020  0.8632010324889855  0.3912396233179318
  0.6467412297125138  0.8631851827967700  0.8912312818197817
  0.3942414526103512  0.1148791872798306  0.3921416595229855
  0.3942462001417111  0.1148663256965183  0.8921420890745355
  0.3942503878099604  0.6148787523106373  0.3921405790623211
  0.3942579166423411  0.6148749541756464  0.8921449110981962
  0.8942535159948484  0.1148862033789704  0.3921500152501551
  0.8942633214312328  0.1148753889521099  0.8921414150884162
  0.8942498497666088  0.6148694650192364  0.3921424107283272
  0.8942651911081054  0.6148769702437545  0.8921550995858214
  0.3775756070571279  0.0970479392866011  0.0914833153606517
  0.3775580501962602  0.0970316410603604  0.5914932430726538
  0.3775279003825869  0.5970443876159762  0.0914233728946644
  0.3775495340695738  0.5970473664175191  0.5914791600182183
  0.8775726593126683  0.0970485379858063  0.0914998122817032
  0.8775661631893351  0.0970215900794580  0.5915163464278392
  0.8775699152951570  0.5970380921251820  0.0915036609703270
  0.8775172255058467  0.5970300807584676  0.5914420497865754
  0.1308559647046632  0.3480838318110742  0.1060093850652461
  0.1308337040656597  0.3480437173025701  0.6061194075485858
  0.1308773656682187  0.8480866605140880  0.1059801222856455
  0.1308302854492865  0.8480531660106385  0.6060433674260784
  0.6308395839025108  0.3480515388912148  0.1060685777410545
  0.6307862654508926  0.3480299116053399  0.6061117931716913
  0.6308265752718134  0.8480467163370469  0.1060703416900318
  0.6308212030351529  0.8480368182071875  0.6060991551272382
  0.1486971138826190  0.4103804440173090  0.1370509054664318
  0.1487163536021008  0.4103766545534549  0.6370664667375399
  0.1486991842553439  0.9103565328392650  0.1370871384590608
  0.1486962508512081  0.9103417832541409  0.6370867932258685
  0.6487038779021688  0.4103552008233920  0.1370841396954674
  0.6487152908322240  0.4103476186895672  0.6370604906434849
  0.6487161008537272  0.9103542772563000  0.1370646009430116
  0.6487195554009866  0.9103542591034608  0.6370677429475280
  0.4016731868854161  0.1511147053612732  0.1324074026646757
  0.4016775662428688  0.1511248423787965  0.6323728557894475
  0.4016784959313677  0.6510652922561783  0.1323796210122373
  0.4016573457309084  0.6511243760055943  0.6323846409584918
  0.9016566483921709  0.1511415521861579  0.1323996219471053
  0.9016841948415814  0.1511303957970633  0.6323768027327294
  0.9016729105708761  0.6511339353979159  0.1323898822138698
  0.9016685550183535  0.6510666297548964  0.6323753492353279
  0.1431105036131597  0.4063822087014165  0.0661962100725488
  0.1431407675475456  0.4062708944863994  0.5662168798979631
  0.1431350953974981  0.9064274447904084  0.0662255728435207
  0.1431420204710017  0.9063407324634051  0.5662293431110504
  0.6431460733960582  0.4063225203346462  0.0662289724886878
  0.6431590209392541  0.4062445719047824  0.5662099498228652
  0.6431434226184896  0.9063016661305728  0.0662110480287234
  0.6431469151028829  0.9062727893483631  0.5662162869091998
  0.3918358590227247  0.1610319877969523  0.0625599891114741
  0.3918106445383219  0.1609966111398671  0.5625220247885115
  0.3918315683160411  0.6610379625465054  0.0625397542258652
  0.3918053815525006  0.6610245513979981  0.5625368640184040
  0.8918200010420247  0.1610244928219336  0.0625468436223295
  0.8918141303492947  0.1609784163547863  0.5625235138922131
  0.8918162049534789  0.6610084352166348  0.0625390329924238
  0.8918173925827981  0.6610131956793600  0.5625334847919097
  0.3035318007163591  0.1379769481528585  0.1393490100726772
  0.3035280590169802  0.1379808602563564  0.6393472326749150
  0.3035333004125478  0.6380179245891341  0.1393469789355946
  0.3035150129214943  0.6379887682587356  0.6393457449102481
  0.8035127588869998  0.1379730917464829  0.1393315751976277
  0.8035366711310784  0.1379867403443754  0.6393604248398637
  0.8035273952939694  0.6379810025776613  0.1393546021196516
  0.8035185861938727  0.6380069093101571  0.6393421582860815
  0.0510783155047780  0.3891338565621181  0.1396249722168271
  0.0510643550981062  0.3891492287451721  0.6396164561213024
  0.0510921045003727  0.8891239058232290  0.1396323346292536
  0.0510615659306072  0.8891518132775730  0.6396111860451128
  0.5510671606030907  0.3891449004623861  0.1396144699709953
  0.5510457354462514  0.3892011631115297  0.6395783181566257
  0.5510692135316111  0.8891655932588520  0.1396109333263477
  0.5510653549229917  0.8891619985068853  0.6396137070936743
  0.2983975394746983  0.1507482498359424  0.0735423775683861
  0.2983825257063342  0.1507487711305563  0.5735403726491038
  0.2983842851683558  0.6507945219615860  0.0735433418254200
  0.2983723749925346  0.6507540225548442  0.5735386326239295
  0.7983858160006676  0.1507426915812398  0.0735250966454255
  0.7983864286740709  0.1507335840692732  0.5735510767710523
  0.7983834880155242  0.6507384632122902  0.0735451446188715
  0.7983760104489792  0.6507908746608865  0.5735403023282916
  0.0498954932203088  0.3957822052559656  0.0726195527561791
  0.0499262175674861  0.3958112414981922  0.5726113664938928
  0.0499135106761640  0.8957741013290816  0.0726248475070796
  0.0499164453637627  0.8958032136699704  0.5726043397922419
  0.5499232958664183  0.3957976579109789  0.0726086827826194
  0.5499318831496941  0.3958660980439554  0.5725733428122129
  0.5499212915803385  0.8958194221879910  0.0726072199484321
  0.5499269938448357  0.8958242172578131  0.5726084985891098
  0.3187972246237921  0.1980204092058111  0.1159610683425921
  0.3187997328668081  0.1980203783258355  0.6159526934500446
  0.3188348383863052  0.6980528023947131  0.1159583463970098
  0.3187827513958670  0.6980287794502251  0.6159513287962862
  0.8187739553222771  0.1980168727507874  0.1159481570389088
  0.8188068546699800  0.1980180625554267  0.6159474779219627
  0.8187901409257755  0.6980193979364878  0.1159529824730486
  0.8188242659564076  0.6980429827669062  0.6159623011803425
  0.0647616076474830  0.4474493138040636  0.1117394427994290
  0.0648135438744724  0.4474584477183888  0.6117501290717552
  0.0647699120203683  0.9474433528906675  0.1117484678449930
  0.0647972066530502  0.9474611241198211  0.6117356655787894
  0.5648003795973515  0.4474533252099182  0.1117398666708177
  0.5648520158920006  0.4475010972753775  0.6117214755479834
  0.5648191064317413  0.9474702086794891  0.1117360467525303
  0.5648284637536641  0.9474687693330136  0.6117468414874453
  0.3624951757341746  0.3883609841182877  0.0767927979579848
  0.3625620440429407  0.3883834358513757  0.5767669468533312
  0.3624891759415043  0.8883521973117423  0.0767800488105190
  0.3625263297237877  0.8883608248129662  0.5767924604723440
  0.8625302322368630  0.3883849561443316  0.0767766007516467
  0.8625423622836305  0.3883706006215034  0.5767949415066687
  0.8625410783354566  0.8883700985298217  0.0767924820356760
  0.8625339504163940  0.8883667746792757  0.5767725518241167
  0.1216846737979701  0.1474044172534815  0.0692475335006272
  0.1217069649436596  0.1474178148951758  0.5692490304491881
  0.1217091194451084  0.6474219481622664  0.0692380763925810
  0.1216707512528232  0.6473948665970882  0.5692359107845999
  0.6216389408636394  0.1473661548514498  0.0692633832814160
  0.6217188693613137  0.1474154407753774  0.5692441874276266
  0.6217027033704204  0.6474200056310525  0.0692387840307141
  0.6216540998413602  0.6473841592551149  0.5692551171382766
  0.3956163219638531  0.4395601075072049  0.1038064513538253
  0.3956575587140727  0.4395670904269989  0.6038439663434824
  0.3956104013368614  0.9395645450190566  0.1037694919555447
  0.3956130088045730  0.9395613077115204  0.6038447631852361
  0.8956236773286746  0.4395829557902450  0.1038240641194504
  0.8956301623677402  0.4395613680815409  0.6038665463293889
  0.8956162389564966  0.9395608711024324  0.1038771489794444
  0.8956100383696236  0.9395745602452206  0.6038289405247520
  0.1476330026783463  0.1961856750382509  0.1061343964004337
  0.1476488394393944  0.1961782230766454  0.6061730933765875
  0.1476441073908699  0.6961944740257794  0.1061485840047567
  0.1476203179822277  0.6961865347014468  0.6061120412375571
  0.6476251722519777  0.1961668906576663  0.1061019557695297
  0.6476488446233578  0.1961754627658947  0.6061738218274085
  0.6476316239857129  0.6961856511695524  0.1061606811182790
  0.6476342458005414  0.6961733703608323  0.6061133256594149
  0.3341317514949776  0.4249110219621900  0.1246899685233468
  0.3341505341705420  0.4249045834436157  0.6246575849715699
  0.3341324733495603  0.9249152640498548  0.1246731999513807
  0.3341232778360946  0.9248782141814380  0.6246916996518681
  0.8341341131890576  0.4249071053691946  0.1246750764057989
  0.8341311496568427  0.4248840576703490  0.6246919144891535
  0.8341167141419414  0.9248711282358482  0.1246914434087327
  0.8341160609923384  0.9248855594386406  0.6246635488224335
  0.0847931270353869  0.1761520273845224  0.1164592337863237
  0.0848000786690037  0.1761427496261515  0.6164642943578902
  0.0847953697529454  0.6761639354116890  0.1164378321018309
  0.0847800168818008  0.6761514622618795  0.6164448891952206
  0.5847932542470767  0.1761457834394967  0.1164907777660228
  0.5847943029538070  0.1761503887016510  0.6164400099430747
  0.5847869223694330  0.6761418648589266  0.1164485765787878
  0.5847946137614598  0.6761554461064738  0.6164790318757845
  0.1833947436243234  0.1102045054615743  0.1329706920027661
  0.1833989505284654  0.1101920502658362  0.6329860151362461
  0.1833845149738355  0.6102070578004365  0.1329888339410394
  0.1833883456168029  0.6102151226050588  0.6329674902425386
  0.6833960108150733  0.1101863028011514  0.1329442449625470
  0.6833782084264101  0.1101902382541528  0.6330135365055113
  0.6833985220328104  0.6102140346928381  0.1329857080366206
  0.6833932849172220  0.6101919914136480  0.6329557232030957
  0.4277133551095434  0.3504100979530195  0.1335533387498082
  0.4277285969128313  0.3504058586838639  0.6335732012531371
  0.4277152316516669  0.8504154379435142  0.1335337948623899
  0.4277473378529287  0.8504341522353761  0.6335764238567271
  0.9277419566858953  0.3504415037890358  0.1335545454111007
  0.9277427223315671  0.3504243749689257  0.6335930707569073
  0.9277488053701818  0.8504383931200598  0.1335973744679712
  0.9277478326934092  0.8504533364625407  0.6335734249087945
  0.3628121139609238  0.3411490417483375  0.1623692353348979
  0.3627965038125787  0.3411161711104616  0.6623113341139391
  0.3628262950375182  0.8411772257974276  0.1623843875913684
  0.3628289581846786  0.8410944162865336  0.6623257414410438
  0.8628292167443951  0.3411346677262452  0.1623279244705519
  0.8628140601220909  0.3410878196486960  0.6623204553237838
  0.8628142387859093  0.8410638577349655  0.1622981909269360
  0.8628237464116455  0.8411065244086738  0.6623094572428453
  0.1164888552288326  0.0881310426731244  0.1454820601161302
  0.1164898326979944  0.0880935753916260  0.6454318575659772
  0.1164697155926595  0.5881325422515518  0.1454560173983133
  0.1164837289768905  0.5881330490954529  0.6454744149384344
  0.6164956225824124  0.0881375211650702  0.1455344766205225
  0.6164583519586864  0.0880991032324088  0.6454284290113456
  0.6164927423187656  0.5880950944403887  0.1454218036238522
  0.6164879190021082  0.5881338376717132  0.6455030561741644
  0.1447670421657818  0.1415820357076282  0.1847241919522868
  0.1447260782699479  0.1415206041119712  0.6847340625714187
  0.1447269299395456  0.6415727802822306  0.1847267480426422
  0.1447495533933118  0.6415906014243969  0.6847144506089698
  0.6448279224702794  0.1416016933889432  0.1847199914830187
  0.6446838762588706  0.1415253111957472  0.6847414968699285
  0.6447080122933312  0.6415320473239974  0.1847285423961425
  0.6447944857896456  0.6415868921494929  0.6847207535525539
  0.4054299680133564  0.3939256767044230  0.1862644236106878
  0.4053804729134975  0.3938851432718269  0.6862871227182754
  0.4054613668173440  0.8939588550083934  0.1862354361804035
  0.4053780023465516  0.8938919348884085  0.6862988484618142
  0.9054062118205047  0.3939225345825013  0.1862720916909733
  0.9053626570218367  0.3938764957164084  0.6863156495207724
  0.9053314525787036  0.8938643817058656  0.1863255205997758
  0.9053609958757205  0.8939117255432835  0.6862889969523948
  0.3099666611447648  0.3084225337982890  0.3727883900658764
  0.3099733764324599  0.3084094634723815  0.8727984819063783
  0.3099769589437208  0.8084213182816755  0.3727861622875356
  0.3100153156644165  0.8083798675112522  0.8728140010906869
  0.8099911277210534  0.3084066682381316  0.3727864817745673
  0.8099553733513304  0.3084154101336744  0.8727903679764965
  0.8099828554377287  0.8083999989938778  0.3727852177486545
  0.8099854670508978  0.8084072157963346  0.8728038823303418
  0.0602078436037080  0.0551894465110875  0.3696116102533702
  0.0601968827148561  0.0551913188420889  0.8696167969807433
  0.0601941836940419  0.5551892288489688  0.3695876511582228
  0.0601690823066288  0.5552091181700728  0.8696096659683071
  0.5602087896505082  0.0551861280548656  0.3695985258975459
  0.5602023507639906  0.0551813086985990  0.8696331119792877
  0.5602155330310725  0.5551823389490355  0.3696187613610492
  0.5601814990462142  0.5552139109550965  0.8696080911564111
  0.2959931664874297  0.3550907693006941  0.3275584905169837
  0.2959787473415156  0.3550690155232453  0.8275657325956903
  0.2959919054740276  0.8550838546667918  0.3275543445707574
  0.2959665299131580  0.8550264321361447  0.8275850655081826
  0.7959814390474577  0.3550621833488052  0.3275542162772695
  0.7959854836106816  0.3550863359904103  0.8275614619762084
  0.7959961667040401  0.8550673367170647  0.3275570457337423
  0.7959788029453518  0.8550572574061422  0.8275640984947055
  0.0524211031623541  0.1041478661749282  0.3253936557571873
  0.0524433553661897  0.1041490968164595  0.8253922646670929
  0.0524472646325662  0.6041760186297707  0.3253931960823917
  0.0523976238577001  0.6041766723630132  0.8254004871650463
  0.5524180254652314  0.1041632431308945  0.3254026329710826
  0.5523781487639837  0.1041240135399069  0.8254049923029935
  0.5524071249607224  0.6041311122314839  0.3253947925597963
  0.5524142434651914  0.6041899405988495  0.8254077163144888
  0.3036525295036113  0.3714329391586006  0.3923100556235523
  0.3036454637992758  0.3714220764545830  0.8923112529879444
  0.3036459269163408  0.8714306985861231  0.3923048432655652
  0.3036513075021697  0.8713918304369793  0.8923267345193645
  0.8036432069165025  0.3714165639327594  0.3923014196535130
  0.8036418383810855  0.3714262821821393  0.8923135150585183
  0.8036507476963272  0.8714089994130924  0.3923081913030474
  0.8036431816736872  0.8714213399281661  0.8923087571313394
  0.0490160540846047  0.1166452813525670  0.3913266588622168
  0.0490019529836465  0.1166498811837354  0.8913218719106042
  0.0489887305611159  0.6166317771310257  0.3913313583903332
  0.0490361283536391  0.6166723393235092  0.8913364769382669
  0.5490023980537663  0.1166293073829383  0.3913411619268933
  0.5490286309369046  0.1166470035569060  0.8913349792537831
  0.5490317906586232  0.6166432237030783  0.3913259261539091
  0.5490197191503315  0.6166671880516252  0.8913462288128843
  0.1459069772864988  0.0799776662728757  0.3324290276089589
  0.1459256994654860  0.0799620726092610  0.8324907001353742
  0.1459274916564558  0.5800105738427883  0.3324870168842922
  0.1458670791108212  0.5799164594498278  0.8323948116033508
  0.6459069718031130  0.0800386381783249  0.3324142572158847
  0.6458691626296729  0.0799423993390165  0.8323726735132915
  0.6458962313224549  0.5799552897466890  0.3323929166089947
  0.6458900928819222  0.5799835373782142  0.8324216293229261
  0.3884282012350381  0.3274043557487324  0.3206859509569533
  0.3884158135024108  0.3274188763666710  0.8206656202878377
  0.3884303249392195  0.8274328132635290  0.3206729556929924
  0.3884126912900593  0.8274540766183739  0.8206260491717148
  0.8884292414077445  0.3274379639871021  0.3206587951373666
  0.8884217078815519  0.3273921582902616  0.8206977682246218
  0.8884395351726965  0.8274024507187975  0.3206873116710790
  0.8884211342440208  0.8274309974386230  0.8206630730922264
  0.1435193920365426  0.0954838039204696  0.4017975789376351
  0.1434928008019712  0.0954756834801259  0.9018545239599771
  0.1434792154518774  0.5954337562230498  0.4018693875658795
  0.1435238667064921  0.5954496838565679  0.9017564277333349
  0.6435116334907628  0.0954391154866522  0.4018039473828914
  0.6435414093464584  0.0955028583113605  0.9017303988348344
  0.6435419974446943  0.5954951426631726  0.4017546238198798
  0.6435137595336399  0.5954407944603154  0.9017984025568057
  0.3989553997777110  0.3493732086051102  0.3873655461113324
  0.3989565624844211  0.3493756967832808  0.8873449497955862
  0.3989567110029406  0.8493874969314800  0.3873567551643088
  0.3989822234545429  0.8493938473606905  0.8873066167072742
  0.8989613601911403  0.3494070698979735  0.3873364248523237
  0.8989426942011294  0.3493715403580894  0.8873742291618629
  0.8989592218754781  0.8493839960125159  0.3873626435678834
  0.8989613960159896  0.8493940745863038  0.8873405587273568
  0.3814909122827271  0.3971609675631064  0.3365645087238995
  0.3814658062738682  0.3971678024782075  0.8365578743059819
  0.3814769365034225  0.8971821204099645  0.3365676982410188
  0.3814268279736770  0.8971937333357961  0.8365470922285745
  0.8814536270755587  0.3971873609550106  0.3365439319159488
  0.8814826521119890  0.3971513992182847  0.8365642467951033
  0.8814793880888859  0.8971578211200654  0.3365553727392028
  0.8814556057928350  0.8971800353336552  0.8365524286445757
  0.1344847076467696  0.1477322454833161  0.3534189781891516
  0.1345016443507006  0.1477193856999202  0.8534644305413394
  0.1344943055969500  0.6477400795112290  0.3535443691604218
  0.1345123292866568  0.6476898585082100  0.8533641481598453
  0.6344687173399949  0.1477584748048039  0.3535034440128710
  0.6344629762181826  0.1477135235622907  0.8533206545766560
  0.6344821523993327  0.6477204901898024  0.3533566772073878
  0.6345023634011903  0.6477291030551634  0.8534600286844584
  0.3980297273765045  0.0609526732398691  0.3278644819167459
  0.3980485943596005  0.0609836195123992  0.8278290550920704
  0.3980322043679190  0.5609558939776387  0.3278614217040233
  0.3980057314852932  0.5609538266215236  0.8278587651663727
  0.8980451065283835  0.0609324178064397  0.3278997233554068
  0.8980053215767554  0.0609516218431246  0.8278599144462887
  0.8980106143343649  0.5609590088300029  0.3278485671288435
  0.8980221230821330  0.5609155345930694  0.8279068257229306
  0.1518400003628688  0.3012574058958202  0.3350454982051271
  0.1518595102831183  0.3012438484020631  0.8350293654920610
  0.1518445273704562  0.8012492287642731  0.3350514796764967
  0.1518498330892156  0.8012603989293949  0.8350458385506084
  0.6518752003415289  0.3012454046273492  0.3350736158043464
  0.6518808722959384  0.3012765378530591  0.8350069483599695
  0.6518468496026757  0.8012480709628114  0.3350219511957388
  0.6518789482515481  0.8012799016457601  0.8349639107932282
  0.3661058938881961  0.1184591007801722  0.3143184753598164
  0.3661089102598771  0.1184896534663341  0.8143233279008827
  0.3661090534436007  0.6184624443932660  0.3143204403689777
  0.3660948102365336  0.6184714398405529  0.8143339000832538
  0.8661476049762075  0.1184456561683488  0.3143167702081531
  0.8660917689606259  0.1184656212130949  0.8143312305840708
  0.8660875453253998  0.6184706059847583  0.3143314548948262
  0.8661548998296291  0.6184452305016135  0.8143233754887005
  0.1349545469352667  0.3608449022540842  0.3091886232301332
  0.1349493838894011  0.3608288393657257  0.8091846610547129
  0.1349697439744186  0.8608363793453438  0.3091886044330711
  0.1349838260929222  0.8608479268017428  0.8091779432676071
  0.6349869505450364  0.3608185898831374  0.3091859999237254
  0.6349564016206486  0.3608632411293066  0.8091713411856146
  0.6349595537315498  0.8608385104204969  0.3091723602851245
  0.6349296124121242  0.8608794490298353  0.8091695916214943
  0.3364050187946414  0.0704053896421237  0.3508020335888122
  0.3364227306494837  0.0704026241645748  0.8507753207421934
  0.3364092124659567  0.5704076631661197  0.3508043295956611
  0.3363932399007838  0.5704202351026870  0.8508220321687040
  0.8364145117040928  0.0704197050883804  0.3508084363153928
  0.8363929374645586  0.0704176243715356  0.8508255605696042
  0.8363960929360809  0.5704064713517598  0.3508119725555257
  0.8364000002164493  0.5704367265614503  0.8508197658088313
  0.0903627437028070  0.3245130684306683  0.3431398242272439
  0.0903718592190488  0.3244744576789257  0.8431192643356987
  0.0903666554821540  0.8245103384259491  0.3431292712744538
  0.0903703413077275  0.8245228456662527  0.8431043579955096
  0.5903821631427197  0.3244805885681196  0.3431151139079362
  0.5903876931861635  0.3244894017142878  0.8431037286290261
  0.5903657695567691  0.8244963108192332  0.3431095480617268
  0.5903811275699898  0.8244706112481653  0.8430946724358447
  0.1865994439550679  0.3801098426930304  0.3851557344106057
  0.1865745561197655  0.3801102403911013  0.8851584662613002
  0.1865983328473630  0.8800963056937774  0.3851696404719153
  0.1865947261332292  0.8800947816478935  0.8851807039828015
  0.6865668312112055  0.3801234397580401  0.3851868295743657
  0.6865835976511165  0.3801375162614558  0.8851482704568754
  0.6865897259019371  0.8800929394421656  0.3851554549349250
  0.6865652362167936  0.8801396682790811  0.8851374527385897
  0.4286145541969481  0.1397466801788050  0.3815619270154615
  0.4286064331740980  0.1397563048346771  0.8815773100474722
  0.4286211519560372  0.6397485455066582  0.3815599316481116
  0.4286247986558486  0.6397457251584721  0.8815537264696550
  0.9286467472581866  0.1397261991960232  0.3815754169075917
  0.9286329309730943  0.1397402351804444  0.8815467348463054
  0.9286100923525055  0.6397504529658851  0.3815550909763840
  0.9286716491519008  0.6396947774740631  0.8815740283813026
  0.1470823385100914  0.3335065174178375  0.4230465748213919
  0.1470798179859217  0.3334731326614337  0.9230341882336286
  0.1470630700815670  0.8335009237374710  0.4230516849413848
  0.1470285753646727  0.8335138303433876  0.9230463253153172
  0.6470437425499554  0.3335105206086052  0.4230573474541036
  0.6470947549377621  0.3334919424892782  0.9230179061248994
  0.6470689953652436  0.8334806087466695  0.4230297394124966
  0.6471324314815605  0.8334346335879061  0.9229927495429516
  0.4056931362868529  0.0830284100814367  0.4194660789157790
  0.4057154562913879  0.0830004823885269  0.9194420789467765
  0.4057066935847465  0.5830272293465699  0.4194618505456724
  0.4057255205088427  0.5830176573405668  0.9194549804180044
  0.9056725494852627  0.0830450351674448  0.4194985400050125
  0.9057269598994515  0.0830198442597882  0.9194550665555705
  0.9057235218752788  0.5830117379733689  0.4194491872773735
  0.9056675650718057  0.5830299318756502  0.9195039608869671
  0.3628568718102242  0.1396828871916638  0.4097935493966925
  0.3628518439059634  0.1396408273101520  0.9098159697034787
  0.3628675749286092  0.6396789481225578  0.4097988595622408
  0.3628823822027120  0.6396720674102709  0.9098216343463892
  0.8628764337632798  0.1397189350329824  0.4097753479871075
  0.8628920380049737  0.1396787943481631  0.9098159561924637
  0.8628679893217900  0.6396570580462912  0.4098206552381148
  0.8629041183751675  0.6397305948452924  0.9097808425256299
  0.1181176474985411  0.3951981586016743  0.4000320024103656
  0.1180800351430126  0.3951533929883832  0.9000349845225049
  0.1181143124203416  0.8951956586136174  0.4000257574419060
  0.1181077473195933  0.8952153659694768  0.9000013201108189
  0.6180674194206911  0.3951847858062679  0.4000119655210582
  0.6180867863850463  0.3951691103213200  0.9000240325628895
  0.6181030192562258  0.8951723120371272  0.4000196428146277
  0.6180652345327310  0.8951063879107619  0.9000617720544553
  0.9898603641773908  0.0144700511768480  0.1226690021071332
  0.9898529178660339  0.0144757425048880  0.6226687890911438
  0.9898498943582914  0.5144813598125624  0.1226693060982730
  0.9898600000025526  0.5144772395184961  0.6226690317468323
  0.4898505251415386  0.0144780327043103  0.1226679115368518
  0.4898553443136350  0.0144801659856991  0.6226730699689529
  0.4898510724120593  0.5144763872905491  0.1226676415514656
  0.4898538310456294  0.5144889003671740  0.6226725139813750
  0.2408470893033937  0.2650064057738848  0.1238003132390710
  0.2408489216982629  0.2650129465751982  0.6238042803276617
  0.2408488792776243  0.7650122946852788  0.1237998739661437
  0.2408545783540415  0.7650192968589111  0.6238061425617205
  0.7408570751229225  0.2649987349191525  0.1238018163296729
  0.7408690527653251  0.2650042392948917  0.6238092798458451
  0.7408554833136506  0.7650137370996193  0.1238041414846288
  0.7408645293870930  0.7650067614477051  0.6238018055966285
  0.9891499502683883  0.9865831975820318  0.3717411980111325
  0.9891509403557106  0.9865795322821784  0.8717371588097804
  0.9891643045155591  0.4865628100967436  0.3717430600377650
  0.9891491213261416  0.4865863973219872  0.8717415004113805
  0.4891478327534658  0.9865822007846413  0.3717416529193828
  0.4891448315620707  0.9865808169588768  0.8717382054325976
  0.4891516228433203  0.4865774725591938  0.3717397908615439
  0.4891631935225088  0.4865768580960777  0.8717400808506888
  0.2427055993491258  0.2332170169340192  0.3725412037357544
  0.2426993488719457  0.2332147512850431  0.8725402310016102
  0.2427086104105545  0.7332209985736375  0.3725399428604048
  0.2426943677205782  0.7332088944923971  0.8725338031274069
  0.7427077257338577  0.2332073129856151  0.3725421176500534
  0.7426993459951933  0.2332094373320219  0.8725382829828087
  0.7427006772747435  0.7332150741641441  0.3725369914305044
  0.7426968406765457  0.7332206310056127  0.8725382643459215
  0.2442309788025889  0.0282616052588309  0.3717774789321925
  0.2442428269788018  0.0282593408948650  0.8717796008019679
  0.2442325136020992  0.5282671525453897  0.3717800095387465
  0.2442284424572992  0.5282599796486204  0.8717810298211018
  0.7442278416486580  0.0282878400038949  0.3717784697451442
  0.7442231446558248  0.0282598525728278  0.8717740933092506