MAPbI3 tetragonal T=300 K               
   1.00000000000000     
    25.0541992188000009    0.0000000000000000    0.0000000000000000
     0.0000000000000000   25.0542068481000015    0.0000000000000000
     0.0000000000000000    0.0000000000000000   25.3479995727999992
   C    H    I    N    Pb
    64   384   192    64    64
Direct
  0.1374711404079379  0.1094016605460562  0.1536498597525665
  0.1374784263534094  0.1093986527267640  0.6536435907974621
  0.1374719373093812  0.6094013561036834  0.1536496725977605
  0.1374730907365138  0.6094028995490213  0.6536483137991843
  0.6374698954378468  0.1094036104625315  0.1536495744438702
  0.6374730345677789  0.1093983611364224  0.6536489961281847
  0.6374791314917572  0.6093987628299776  0.1536421106722268
  0.6374822702468617  0.6094054736658020  0.6536450433710838
  0.3864675276067105  0.3608084229104829  0.1534339326043685
  0.3864758686807089  0.3608107557651233  0.6534348706225634
  0.3864663479499055  0.8608083017090444  0.1534330275351753
  0.3864750274335351  0.8608101079740880  0.6534373134205822
  0.8864743022789845  0.3608118922647860  0.1534362984017077
  0.8864758285961334  0.3608122969240433  0.6534358331788294
  0.8864735040679966  0.8608101610354685  0.1534407594558857
  0.8864737726140990  0.8608091302185424  0.6534349993842201
  0.1507124442149177  0.3696297073971421  0.1420435558884561
  0.1507253246322705  0.3696253971526303  0.6420130509206704
  0.1507033115234076  0.8696391451940485  0.1420438422299423
  0.1507144932623458  0.8696341325128388  0.6420327965216694
  0.6507258311491283  0.3696222116755886  0.1420151199973435
  0.6507376646128075  0.3696265645708864  0.6420001339072637
  0.6507272458692788  0.8696169212853730  0.1420166320093952
  0.6507264668852675  0.8696250771009397  0.6420139568000095
  0.3978065699016265  0.1258668207589125  0.1506301121898853
  0.3978012795003401  0.1258545233904546  0.6506269132218461
  0.3978071251439104  0.6258795292219451  0.1506456742601320
  0.3978123626577946  0.6258683919349727  0.6506276683589116
  0.8978178618489253  0.1258640760695628  0.1506175655807060
  0.8978096566249129  0.1258647303100951  0.6506295358495204
  0.8978111349696882  0.6258650287120090  0.1506309823163889
  0.8978151470399394  0.6258792829569143  0.6506310957912405
  0.1474171376306572  0.1301045577310913  0.3955588008724572
  0.1474101715101511  0.1300918488682511  0.8955625170708140
  0.1474113129420046  0.6301122376730417  0.3955509814980440
  0.1474020522717044  0.6301009375590200  0.8955738189957770
  0.6474161808577735  0.1301156066671561  0.3955574763818467
  0.6474093704564300  0.1300989312721729  0.8955741576089130
  0.6474165970252380  0.6301054269690770  0.3955631813285209
  0.6474143829169648  0.6301178841503356  0.8955555942859128
  0.3970349997595166  0.3784764870538507  0.3989571423829393
  0.3970335941838800  0.3784766674350967  0.8989604717012175
  0.3970378717528633  0.8784733398411191  0.3989535798651221
  0.3970160425842109  0.8784675186343205  0.8989782381588732
  0.8970348363635883  0.3784711797939703  0.3989611358259477
  0.8970332190347199  0.3784828018989992  0.8989549771467444
  0.8970309331558323  0.8784833379832283  0.3989510232407465
  0.8970243316272826  0.8784747681412223  0.8989724200630367
  0.1404913442945310  0.3921721642547385  0.3989379393318185
  0.1404776504471918  0.3921764720285369  0.8989367507451145
  0.1404881626419462  0.8921765893646861  0.3989377271023392
  0.1404935489544737  0.8921774791052802  0.8989365018825688
  0.6404937056279351  0.3921706760393268  0.3989450080575782
  0.6404964704871113  0.3921718346642183  0.8989356769963295
  0.6405010459065066  0.8921688299442512  0.3989345527322032
  0.6404950577393956  0.8921709817760202  0.8989358362270133
  0.3856163036873703  0.1446364588984411  0.3996380134509839
  0.3856141356341187  0.1446434961264115  0.8996318506144058
  0.3856178615759239  0.6446373123158943  0.3996402594276572
  0.3856126749109577  0.6446307460237058  0.8996374700015343
  0.8856210115730847  0.1446429500310030  0.3996457151943603
  0.8856181243586125  0.1446347914694585  0.8996446173930149
  0.8856195427587134  0.6446296854602862  0.3996394634167099
  0.8856141969601808  0.6446443865201686  0.8996471578607077
  0.3953766272798363  0.0925381339459161  0.1787666913686133
  0.3953566555559269  0.0925327457323221  0.6787717564918380
  0.3953887317045636  0.5925519255076588  0.1787855449344715
  0.3953896907325326  0.5925481111278929  0.6787745398030272
  0.8953919427531379  0.0925458013712843  0.1787680261482877
  0.8953808998618371  0.0925501485476719  0.6787841956065490
  0.8953830719385972  0.5925426055993986  0.1787768143559844
  0.8954001007165655  0.5925601026731830  0.6787800456079939
  0.1477932648044456  0.3324511392632593  0.1649767687957369
  0.1478219705441779  0.3324339667160519  0.6649286986618455
  0.1477858077240299  0.8324543856262403  0.1649676896066761
  0.1478104098902549  0.8324474270762504  0.6649554403838861
  0.6478220842784578  0.3324275973846213  0.1649256585314711
  0.6478617905897088  0.3324342315080992  0.6649170356211044
  0.6478262361189840  0.8324274037815532  0.1649356670686399
  0.6478222576716889  0.8324330889621729  0.6649284170901231
  0.1638747793416470  0.4018935374407921  0.1682371580387177
  0.1638973982204330  0.4018780562134641  0.6682187656119196
  0.1638591884541949  0.9018975088809319  0.1682480600133297
  0.1638717975442587  0.9018945927951491  0.6682341009623345
  0.6638982844336704  0.4018703509645533  0.1682250796064958
  0.6638994042370172  0.4018859912722244  0.6682010412635169
  0.6639012977558593  0.9018723013695198  0.1682174308653660
  0.6638949190178760  0.9018769488667848  0.6682215428740599
  0.4061804476592596  0.1628250079700859  0.1723428721730511
  0.4061894565628992  0.1628158196478039  0.6723319833302849
  0.4061580415937037  0.6628449552496116  0.1723557284616430
  0.4061891528906564  0.6628342953217784  0.6723269788569763
  0.9062029192344816  0.1628310281591674  0.1723125996340517
  0.9061920498652406  0.1628351921882283  0.6723209307857783
  0.9061909169786656  0.6628294006552826  0.1723326765770287
  0.9061751776942063  0.6628506526783730  0.6723282365173923
  0.1794595188727425  0.3650321551539908  0.1096122429483881
  0.1794571320739402  0.3650494722586499  0.6095649206814756
  0.1794554779471189  0.8650526946180914  0.1096148616922181
  0.1794570248414370  0.8650552093336105  0.6095948688745032
  0.6794576667361502  0.3650506745265106  0.1095666015205262
  0.6794632571212244  0.3650663578651943  0.6095440456974761
  0.6794561427722040  0.8650382202795646  0.1095664740832050
  0.6794607510943101  0.8650508365727673  0.6095677793570609
  0.4295928062032216  0.1186827806772104  0.1216299577212261
  0.4295863906152651  0.1186506776776747  0.6216300959632082
  0.4296021112881118  0.6187075489141398  0.1216495426821121
  0.4295936812313144  0.6186775098976822  0.6216229802995448
  0.9295954605732059  0.1186643757714088  0.1216112751910616
  0.9295904909605714  0.1186613393853826  0.6216269969825083
  0.9295933030385626  0.6186712298757774  0.1216276961883067
  0.9296021033141588  0.6186963965316665  0.6216306026800482
  0.3149776815547045  0.1324722514779489  0.1515971318192545
  0.3149741810191485  0.1324879378276619  0.6515887543098117
  0.3149754318471716  0.6324423543080909  0.1515996477678436
  0.3149830152126283  0.6324607112240708  0.6516080326462971
  0.8149888702457122  0.1324680470016754  0.1516040645412446
  0.8149803605708857  0.1324645059196062  0.6516064702797525
  0.8149814466422854  0.6324651981084266  0.1516072745320959
  0.8149841534716934  0.6324448888936867  0.6516017472567289
  0.0689508893805711  0.3827219467091948  0.1510331775142789
  0.0689628397293850  0.3826978086018038  0.6510470083248012
  0.0689409280740949  0.8827247896449419  0.1510288608746903
  0.0689506825611061  0.8827006598983933  0.6510400946520825
  0.5689645529044124  0.3826970311776509  0.1510503356412270
  0.5689709157101122  0.3826523436969725  0.6510556070444236
  0.5689654983447173  0.8826871159685150  0.1510549985131713
  0.5689636903489911  0.8826971771700688  0.6510432383860869
  0.3369976283097266  0.0998557296126954  0.0982312157840220
  0.3369861641601152  0.0998560280421156  0.5982297209305378
  0.3370187863971260  0.5998278446388783  0.0982419063210249
  0.3369988984839180  0.5998391805705925  0.5982433900240975
  0.8369955413276684  0.0998425505866421  0.0982392487350868
  0.8369956662163855  0.0998350370484709  0.5982488590392351
  0.8369972180090917  0.5998442531398459  0.0982425888561623
  0.8370152353816224  0.5998216923238779  0.5982452489876157
  0.0839638328204969  0.3561471537822191  0.0921158724391083
  0.0839563780299420  0.3561576712604889  0.5921072911208557
  0.0839599052894382  0.8561582668645993  0.0921072795537583
  0.0839602596562902  0.8561449435199350  0.5921115955923648
  0.5839550385728164  0.3561620845131275  0.0921087414583019
  0.5839643178668656  0.3561233211002744  0.5921106059515514
  0.5839542187305108  0.8561470878785228  0.0921160887517913
  0.5839604059923578  0.8561547890556386  0.5921052057954493
  0.3430180548866899  0.1664226932238928  0.1012220576944621
  0.3430292730394480  0.1664218796854169  0.6012097843043827
  0.3430029168557359  0.6664000191614355  0.1012232906026418
  0.3430075611848777  0.6664090681626192  0.6012234572709371
  0.8430150689029654  0.1664108366524568  0.1012158499441234
  0.8430093993475622  0.1664038332774980  0.6012177969840353
  0.8430120110043808  0.6664128887647964  0.1012251013728552
  0.8430018683563633  0.6663939661911105  0.6012143358903428
  0.0963956320364640  0.4206328306636026  0.1028596773125848
  0.0963797478198616  0.4206391624847731  0.6028819709757224
  0.0963865437194497  0.9206444795403103  0.1028620738797504
  0.0963753651389830  0.9206330305359222  0.6028723409952105
  0.5963812090028104  0.4206414696192564  0.1028890785291388
  0.5963522452513583  0.4206122374281169  0.6028880331770924
  0.5963764412254727  0.9206285601448673  0.1028878957562918
  0.5963826497285293  0.9206372807661116  0.6028780050457547
  0.3513522754460519  0.3526330651043815  0.0781824009961124
  0.3513517186419306  0.3526396618991128  0.5781861647603221
  0.3513477507200976  0.8526384439633260  0.0781824309376952
  0.3513569534678440  0.8526312373910343  0.5781867892703479
  0.8513500689592097  0.3526337290991063  0.0781889310942809
  0.8513600797364999  0.3526240982748601  0.5781856321744950
  0.8513587586279180  0.8526232640224182  0.0781903719509915
  0.8513561770732342  0.8526284332250996  0.5781846383937004
  0.1017504348866748  0.1022159862192306  0.0786711068586283
  0.1017473636019305  0.1022192722632916  0.5786671805168502
  0.1017506519415913  0.6022185341479177  0.0786704640583093
  0.1017518725702349  0.6022131344973790  0.5786689985546850
  0.6017455673761237  0.1022196340441829  0.0786713689894491
  0.6017501121293943  0.1022111967562803  0.5786697698256934
  0.6017466458792413  0.6022229071928780  0.0786673190705796
  0.6017512185993228  0.6022126300687022  0.5786706039873661
  0.4031687049203400  0.3944464086953151  0.0793993451046270
  0.4031751368810235  0.3944443659483753  0.5793972555911342
  0.4031647541411466  0.8944516936212764  0.0794005045498044
  0.4031730378012516  0.8944450822267062  0.5794011607688270
  0.9031664133900964  0.3944459251588141  0.0793980977981099
  0.9031714939916228  0.3944433028958218  0.5793971757393515
  0.9031705021827642  0.8944424441757359  0.0794033438954024
  0.9031707371823703  0.8944443952974732  0.5793988971355005
  0.1518500452147394  0.1460283946301874  0.0806252513010564
  0.1518484320500634  0.1460330221182098  0.5806207521522023
  0.1518519076425388  0.6460298907849600  0.0806258127642929
  0.1518491378923574  0.6460299682410154  0.5806234215929096
  0.6518425566896410  0.1460348272683964  0.0806261803281770
  0.6518487148998449  0.1460261402396049  0.5806248825438044
  0.6518414766847628  0.6460424298902302  0.0806229000246811
  0.6518487473140931  0.6460289342360884  0.5806165536313985
  0.3444950941275360  0.4145515651129882  0.1040100985890841
  0.3445064951589398  0.4145582933295858  0.6040140483204026
  0.3444925056562076  0.9145546659143553  0.1040154783598153
  0.3445003997870691  0.9145502180984364  0.6040138264914009
  0.8444960028095152  0.4145533441722579  0.1040147083888715
  0.8444968017366759  0.4145452427242581  0.6040071504184327
  0.8444949900888414  0.9145443904831523  0.1040128296431183
  0.8444972605385254  0.9145472156591812  0.6040112231665158
  0.0927593880642613  0.1630956415233619  0.1063856801692532
  0.0927609795922097  0.1630962930450707  0.6063897656405197
  0.0927619386032802  0.6630973909585691  0.1063869658004590
  0.0927580460866239  0.6630925789817371  0.6063842708445056
  0.5927525415916229  0.1630982015801541  0.1063893053723012
  0.5927583377200185  0.1630907786302989  0.6063863373128410
  0.5927528420848334  0.6630961256970991  0.1063948143423029
  0.5927610082284958  0.6630931514042864  0.6063836639506375
  0.1598405590298277  0.0723687870157610  0.1463997451307062
  0.1598466692106943  0.0723666242992693  0.6463879408861627
  0.1598403520416991  0.5723675619730300  0.1463982639584285
  0.1598426863954693  0.5723695232441953  0.6463975921129765
  0.6598404726093140  0.0723715586004368  0.1463968787600926
  0.6598414360550660  0.0723639422821499  0.6463982960343745
  0.6598535978617441  0.5723702063779826  0.1463818462546268
  0.6598514550928976  0.5723721555949320  0.6463933790646945
  0.4070718124710261  0.3225076414519348  0.1477138379522806
  0.4070759070116712  0.3225075964667934  0.6477130278081192
  0.4070702313432981  0.8225076692316768  0.1477091051258357
  0.4070790823870228  0.8225093128680715  0.6477176119588753
  0.9070759569853161  0.3225097394785691  0.1477157044679753
  0.9070841669738985  0.3225127221498975  0.6477193641446889
  0.9070810967138540  0.8225111817629966  0.1477246657641482
  0.9070777090639800  0.8225076676930394  0.6477162442149199
  0.3506781263888294  0.3549509395413750  0.1778405032440067
  0.3506871307558631  0.3549564091256704  0.6778436440588539
  0.3506781831046429  0.8549492927915510  0.1778408799303595
  0.3506866293536243  0.8549525968236307  0.6778453255420580
  0.8506879356708886  0.3549572528251191  0.1778474432656249
  0.8506870736458106  0.3549527003176801  0.6778435129867277
  0.8506854362311538  0.8549510611668139  0.1778476540799466
  0.8506856954285102  0.8549524996979466  0.6778437272068882
  0.1022292507942852  0.1007974773668809  0.1780227085154967
  0.1022405919509537  0.1007928246236003  0.6780209557878842
  0.1022293125560171  0.6007980430655523  0.1780224353421779
  0.1022322382721790  0.6007992245280385  0.6780226876857233
  0.6022294977968388  0.1007972306043850  0.1780236986186906
  0.6022321134300341  0.1007953532702887  0.6780235310741488
  0.6022427560948835  0.6007849736640087  0.1780196084120558
  0.6022442080038968  0.6008028757554419  0.6780237000634105
  0.1628183311102357  0.1387762801944782  0.1735482863037697
  0.1628286496459336  0.1387706066932593  0.6735405185658985
  0.1628202618032721  0.6387748466771787  0.1735485698038985
  0.1628212643412853  0.6387780122920373  0.6735447402127700
  0.6628159479427590  0.1387788509450412  0.1735481351209353
  0.6628217771339630  0.1387728037614460  0.6735462662693421
  0.6628252334240962  0.6387733826044795  0.1735427139567919
  0.6628326515590780  0.6387824412903983  0.6735371657005061
  0.4130942567481361  0.3897523656621772  0.1722556648868908
  0.4131070984512167  0.3897517584568472  0.6722547449121731
  0.4130941732203226  0.8897504491509549  0.1722556001750897
  0.4131024425623346  0.8897539927353790  0.6722575598620897
  0.9131042921387543  0.3897555043562190  0.1722539141098728
  0.9130991051570541  0.3897610372989389  0.6722542620989406
  0.9130964583306630  0.8897582323801543  0.1722604629222702
  0.9131015176116437  0.8897537372706807  0.6722544792068799
  0.3472116632118913  0.3276651959590370  0.3541533181519133
  0.3472074428827654  0.3276683443875970  0.8541573039998975
  0.3472064962465637  0.8276644709253680  0.3541548248157779
  0.3472119705759857  0.8276626475008788  0.8541448309217823
  0.8472097633468960  0.3276634593353566  0.3541544951797690
  0.8472105617156850  0.3276623532168159  0.8541604297307430
  0.8472095827447854  0.8276612560983639  0.3541561251120038
  0.8472139422936841  0.8276700104481864  0.8541454471205476
  0.0968986109422209  0.0772374971223478  0.3539308871534710
  0.0968877360114870  0.0772345671358722  0.8539273440658051
  0.0968957607808923  0.5772397550891580  0.3539278308265409
  0.0969048075900353  0.5772348424150311  0.8539154540231253
  0.5969073756474221  0.0772435354904530  0.3539249429264065
  0.5969078421999952  0.0772386961116219  0.8539144297034430
  0.5969029380071003  0.5772375789212626  0.3539285708059668
  0.5969052431661090  0.5772414920473610  0.8539280398415918
  0.3375620036644812  0.3921867540769332  0.3409200988079580
  0.3375623471492915  0.3921891149326995  0.8409245970183578
  0.3375602350265457  0.8921862206330728  0.3409223048425722
  0.3375708483197548  0.8921870911908931  0.8409163889439737
  0.8375663947246158  0.3921854017011620  0.3409201630226187
  0.8375558832439896  0.3921811139901942  0.8409209237017807
  0.8375520608450867  0.8921803551768990  0.3409166738207335
  0.8375699991579689  0.8921949105703378  0.8409188507052119
  0.0839853298965859  0.1413396814237855  0.3413031335935128
  0.0839837056877554  0.1413393100860073  0.8413046660094198
  0.0839670089944310  0.6413403077352341  0.3413099357358510
  0.0839873598854702  0.6413392031018564  0.8413007211562408
  0.5839762117350963  0.1413438982385799  0.3413114970945993
  0.5839952655290038  0.1413441701569997  0.8413025362017986
  0.5839921368600162  0.6413399621353447  0.3412995626011526
  0.5839756369403712  0.6413412437370118  0.8413076501004805
  0.3147010881027600  0.3669848297939193  0.3981279640302778
  0.3146982633321391  0.3669899056421269  0.8981312861078005
  0.3147033535385393  0.8669865818418560  0.3981325442950665
  0.3146831093570345  0.8669778504771007  0.8981103081542517
  0.8146993130469207  0.3669860759743466  0.3981268024456849
  0.8147000485065734  0.3669847103573799  0.8981328462623661
  0.8146986713243131  0.8669824915833152  0.3981293143740517
  0.8146902225484364  0.8669843366230973  0.8981153989702048
  0.0655995551982340  0.1155243287151030  0.3998332828547036
  0.0655894299794061  0.1155211722200239  0.8998305487430620
  0.0655967372520578  0.6155161517338583  0.3998398900603680
  0.0655871110587428  0.6155076307922700  0.8998168206406599
  0.5656006824928798  0.1155138009658284  0.3998371477594040
  0.5655916322425718  0.1155113505664497  0.8998173044635950
  0.5655985181941379  0.6155248763604492  0.3998269174769096
  0.5655995325505938  0.6155175274809664  0.8998353591990533
  0.1790881188818093  0.1297860169530180  0.3656151297690114
  0.1790812757179428  0.1297776082327740  0.8656199755192292
  0.1790717682971149  0.6298250122146969  0.3655975121312880
  0.1790795604013433  0.6298091743506442  0.8656382087676743
  0.6790796448923203  0.1298317715997074  0.3656061539184764
  0.6790876426887643  0.1298002406800724  0.8656390131895512
  0.6790918165215311  0.6297809603773066  0.3656250074790797
  0.6790784037102914  0.6298240505498525  0.8656062400494350
  0.4309949439280406  0.3728532818953600  0.3720955158849474
  0.4309927352719969  0.3728405237759188  0.8721021680538559
  0.4309940128815751  0.8728514549866701  0.3720885825568638
  0.4309876245421303  0.8728423681497838  0.8721326868225578
  0.9309957247825625  0.3728380568307058  0.3721038405996226
  0.9309911402523428  0.3728579443155925  0.8720916232042136
  0.9309885756014444  0.8728595141012866  0.3720880746107769
  0.9309912880819886  0.8728535263671104  0.8721205791167727
  0.1567986774938986  0.1011411748594751  0.4266765338170462
  0.1567891936036995  0.1011227993185608  0.9266755054945007
  0.1568164547947045  0.6011351951363143  0.4266484967357557
  0.1567865455569335  0.6011226115784319  0.9266769195565934
  0.6568197319321657  0.1011375238895372  0.4266541048324464
  0.6567888053483784  0.1011225614991244  0.9266804392466957
  0.6567919962359557  0.6011453988394881  0.4266848657942990
  0.6568142585548350  0.6011472406764892  0.9266602828513029
  0.4010415447452633  0.3517696996731962  0.4330780658547074
  0.4010320480860947  0.3517781724629398  0.9330872407908769
  0.4010469306565530  0.8517629625435559  0.4330714369480747
  0.4010012276161553  0.8517577223525579  0.9330990675345456
  0.9010326116120260  0.3517684698620353  0.4330857389262537
  0.9010433379794370  0.3517805119016340  0.9330791652284961
  0.9010423437048605  0.8517805794876597  0.4330731346334510
  0.9010176719524966  0.8517614519770216  0.9330894716218071
  0.3952786940462648  0.4198342144250065  0.4134385212780819
  0.3952845292241592  0.4198375576968002  0.9134315000203522
  0.3952843785231564  0.9198300960497993  0.4134380774428559
  0.3952565447952787  0.9198253596877602  0.9134602494142301
  0.8952838688313308  0.4198310089764895  0.4134364098256305
  0.8952754430054519  0.4198426363595409  0.9134313269674572
  0.8952722452441251  0.9198423489372193  0.4134280433925275
  0.8952650414486178  0.9198310729018135  0.9134586790437068
  0.1437527379714406  0.1698674138250223  0.4136224184885979
  0.1437475747433981  0.1698515507489318  0.9136328904289039
  0.1437354651658607  0.6698629644389174  0.4136391314193018
  0.1437211244594863  0.6698530334144349  0.9136582127410570
  0.6437361182030465  0.1698649052520349  0.4136469421480344
  0.6437335204061895  0.1698524338119246  0.9136551668132163
  0.6437521665077867  0.6698703652670136  0.4136218118760998
  0.6437367490279763  0.6698724864563510  0.9136349037340551
  0.4048655521516281  0.0946799501144219  0.3362437789928891
  0.4048640890303286  0.0946797990797822  0.8362428679020710
  0.4048651237635980  0.5946876534139202  0.3362398979578155
  0.4048623296469646  0.5946740193052467  0.8362436063030115
  0.9048685486075964  0.0946857593869412  0.3362514943010869
  0.9048660378945856  0.0946902236108765  0.8362404601955647
  0.9048597265033373  0.5946770374841981  0.3362403852683103
  0.9048563772085139  0.5946758384232642  0.8362592806010654
  0.1527405953939800  0.3419843412738925  0.3339568400927041
  0.1527419348647182  0.3419722541933291  0.8339726628898823
  0.1527449529975710  0.8419841816720840  0.3339625052493736
  0.1527452127072504  0.8419885080676447  0.8339580757499546
  0.6527406152614886  0.3419840139978858  0.3339620867310071
  0.6527406868753602  0.3419901799625638  0.8339501755464573
  0.6527375134907510  0.8419746118918076  0.3339574260988924
  0.6527351806302795  0.8419777686968649  0.8339575175478432
  0.3552112820854594  0.1372449466609728  0.3224476668090951
  0.3552039386534537  0.1372363899209446  0.8224456121019929
  0.3552096764064857  0.6372521096335245  0.3224510170813807
  0.3552064460455274  0.6372376655975650  0.8224485858639486
  0.8552139818836959  0.1372502887981774  0.3224545974689272
  0.8552126650283219  0.1372585192945578  0.8224553344235267
  0.8552048990471680  0.6372422446880641  0.3224528151266235
  0.8552020861589207  0.6372388697557251  0.8224605810499485
  0.1035856704593688  0.3861731512066952  0.3243082235529755
  0.1035839346469393  0.3861543798594165  0.8243009898398755
  0.1035935607352062  0.8861747025016458  0.3243020007134360
  0.1035962724239294  0.8861834233368480  0.8243029620911704
  0.6035907523159280  0.3861771789789940  0.3243133581173551
  0.6035893705145743  0.3861836308510456  0.8243063269445332
  0.6035893630394623  0.8861700190521790  0.3243076603666377
  0.6035819799462171  0.8861686224483063  0.8243102620337963
  0.3435419755541317  0.0829658448171773  0.3595959871133242
  0.3435432741830521  0.0829627053276689  0.8596015061218991
  0.3435428870031661  0.5829701574579366  0.3595939691298249
  0.3435392903945775  0.5829587733760790  0.8595975314840989
  0.8435451711116992  0.0829716686745765  0.3596035725926723
  0.8435420872368110  0.0829715202858041  0.8595920429910401
  0.8435391448219938  0.5829616307295319  0.3595989524104152
  0.8435341638981448  0.5829668869626931  0.8596175921104526
  0.0932985796992792  0.3320463605626734  0.3621527201410683
  0.0932974247855695  0.3320367022885726  0.8621593105245129
  0.0932973592026076  0.8320512474759677  0.3621489075643676
  0.0932978418904090  0.8320567708408494  0.8621461631343352
  0.5932958059852745  0.3320483222941396  0.3621542362443049
  0.5932982673853463  0.3320516298519150  0.8621447457023682
  0.5932948105556222  0.8320469709378232  0.3621560820138169
  0.5932940237317575  0.8320435442910116  0.8621584445824976
  0.1658303154258413  0.4251979733832305  0.3852595957357500
  0.1658126969466997  0.4252047206170272  0.8852537114298529
  0.1658301940125878  0.9252010963002439  0.3852610524107204
  0.1658373964157797  0.9252011716444870  0.8852610856969593
  0.6658339498736700  0.4251958275528424  0.3852696540270068
  0.6658369440779807  0.4251979216158867  0.8852616138699189
  0.6658435393745139  0.9251900487498230  0.3852526909133450
  0.6658353204303556  0.9251941322412589  0.8852550902549025
  0.4112747572608592  0.1781305395203320  0.3878038173037551
  0.4112705908629929  0.1781370178843425  0.8877916520339003
  0.4112725886303594  0.6781345593368847  0.3878071214497331
  0.4112725086301087  0.6781242151014835  0.8878025536834855
  0.9112765895964332  0.1781387623013272  0.3878083275539095
  0.9112762430368062  0.1781317256770802  0.8878149138944439
  0.9112769915203832  0.6781236640109626  0.3878035619536283
  0.9112656734554238  0.6781417984831964  0.8878042459223103
  0.1631988414622445  0.3654255788529371  0.4247293354521748
  0.1631861072679960  0.3654405052040934  0.9247370523734177
  0.1631910248630828  0.8654305896251183  0.4247338142040651
  0.1631950143056069  0.8654284848606263  0.9247298143170211
  0.6631984763769297  0.3654213506904472  0.4247364143813526
  0.6632012856651828  0.3654208712326089  0.9247248402551622
  0.6632055815887908  0.8654202539207987  0.4247265141523591
  0.6632003195782783  0.8654237210052469  0.9247290317421311
  0.4063624803644130  0.1185701077432853  0.4276725482996489
  0.4063625243565500  0.1185831438860286  0.9276687141180292
  0.4063686293399675  0.6185694815561333  0.4276697436691145
  0.4063583250072735  0.6185646465698613  0.9276717139713124
  0.9063707632717888  0.1185777836157101  0.4276776714717074
  0.9063647361254979  0.1185633821386974  0.9276733678166100
  0.9063678750345328  0.6185613881287806  0.4276703005102557
  0.9063691685464451  0.6185852461726368  0.9276801743191140
  0.3488866122720574  0.1598392221705317  0.4179676622858265
  0.3488847498802584  0.1598470729904097  0.9179610254542396
  0.3488889046213267  0.6598351327791300  0.4179744414227393
  0.3488829243557225  0.6598343794482687  0.9179667877456262
  0.8488918744087600  0.1598421549876821  0.4179771934889461
  0.8488887210563376  0.1598336984781014  0.9179780558322708
  0.8488923118881756  0.6598322517238008  0.4179736821572286
  0.8488858858808886  0.6598433627554325  0.9179822166063318
  0.1058885751710148  0.4079323292004307  0.4205847645195318
  0.1058682036098069  0.4079347485568885  0.9205758166221188
  0.1058821985845722  0.9079385693239672  0.4205785020975301
  0.1058898065747653  0.9079408396173522  0.9205797732126808
  0.6058912033938401  0.4079299526025064  0.4205920832591366
  0.6058940912345564  0.4079303390302010  0.9205845598763354
  0.6059018936591249  0.9079349925599914  0.4205824645898096
  0.6058930841238571  0.9079331432906534  0.9205832480744580
  0.9783728691006195  0.9814280121911855  0.1220944495731769
  0.9783706992484682  0.9814291013420559  0.6220946482947920
  0.9783726809254690  0.4814337562509826  0.1220936966973149
  0.9783718840238066  0.4814291060883697  0.6220948788569484
  0.4783716628824328  0.9814285827406267  0.1220945873083090
  0.4783732627508741  0.9814278517526769  0.6220944928921256
  0.4783732343073779  0.4814270550887854  0.1220954052425470
  0.4783774369080004  0.4814367221264774  0.6220947382963362
  0.2298780083078126  0.2323887487831146  0.1225352096768647
  0.2298796339262913  0.2323853052011426  0.6225370551935959
  0.2298777983613265  0.7323889512691384  0.1225358393116821
  0.2298785141920736  0.7323894307512950  0.6225357149611350
  0.7298789747134591  0.2323850942482455  0.1225384709499345
  0.7298776736922353  0.2323894438654534  0.6225353129725451
  0.7298765755359685  0.7323863391903800  0.1225357467627829
  0.7298797227901461  0.7323875385501070  0.6225384243411753
  0.9798356588882491  0.0134474982693042  0.3717959783957256
  0.9798346035789393  0.0134443699643123  0.8717949969904077
  0.9798378517336112  0.5134372614133885  0.3717954404409354
  0.9798312553958870  0.5134499721400135  0.8717970489315424
  0.4798360728268215  0.0134402815080793  0.3717951514945048
  0.4798388794423676  0.0134447680526886  0.8717966872179119
  0.4798362350550048  0.5134427513646488  0.3717953225717786
  0.4798371316570414  0.5134371893750501  0.8717970233165131
  0.2318260951527450  0.2642287721362632  0.3713580759895667
  0.2318311993590170  0.2642283909395460  0.8713571824699305
  0.2318295911775701  0.7642332377240350  0.3713576087440351
  0.2318271772775968  0.7642341633561996  0.8713558938148392
  0.7318314700390838  0.2642322797967966  0.3713573251250643
  0.7318244245259066  0.2642320347950500  0.8713564344336853
  0.7318262374868011  0.7642271675549700  0.3713573286505368
  0.7318285849945266  0.7642279450599369  0.8713560763840010
  0.2707579371909808  0.0143944664460833  0.3624057662129165
  0.2707557708215473  0.0143909419268928  0.8624055879441371
  0.2707577733210363  0.5143958664219900  0.3624048049402005
  0.2707488555647962  0.5143896381564869  0.8624021455226679
  0.7707562116690646  0.0143968269672679  0.3624031315398968
  0.7707556909432082  0.0143959151418671  0.8624025393531541