MAPbI3 tetragonal T=150 K               
   1.00000000000000     
    24.7458992004000002    0.0000000000000000    0.0000000000000000
     0.0000000000000000   24.7459068297999991    0.0000000000000000
     0.0000000000000000    0.0000000000000000   25.4960002898999996
   C    H    I    N    Pb
    64   384   192    64    64
Direct
  0.1227280110334808  0.1449659677245174  0.1204568976036198
  0.1227280110334809  0.1449659677245175  0.6204569276036203
  0.1227280110334809  0.6449659577245194  0.1204568976036197
  0.1227280110334808  0.6449659577245195  0.6204569276036200
  0.6227280310334796  0.1449659677245174  0.1204568976036195
  0.6227280310334802  0.1449659677245170  0.6204569276036203
  0.6227280310334796  0.6449659577245194  0.1204568976036197
  0.6227280310334803  0.6449659577245194  0.6204569276036196
  0.3727280310334809  0.3949659577245169  0.1204568976036199
  0.3727280310334814  0.3949659577245167  0.6204569276036204
  0.3727280310334810  0.8949659577245194  0.1204568976036198
  0.3727280310334812  0.8949659577245194  0.6204569276036199
  0.8727280310334797  0.3949659577245169  0.1204568976036196
  0.8727280310334802  0.3949659577245168  0.6204569276036199
  0.8727280310334800  0.8949659577245194  0.1204568976036197
  0.8727280310334801  0.8949659577245194  0.6204569276036199
  0.1348643440831871  0.4046618236869808  0.1263310978768875
  0.1348643440831875  0.4046618236869808  0.6263311178768892
  0.1348643440831873  0.9046618536869782  0.1263310978768875
  0.1348643440831873  0.9046618536869779  0.6263311178768890
  0.6348643640831880  0.4046618236869804  0.1263310978768870
  0.6348643640831882  0.4046618236869807  0.6263311178768889
  0.6348643640831875  0.9046618536869783  0.1263310978768872
  0.6348643640831882  0.9046618536869784  0.6263311178768886
  0.3848643640831880  0.1546618536869808  0.1263310978768872
  0.3848643640831879  0.1546618536869816  0.6263311178768889
  0.3848643640831879  0.6546618536869783  0.1263310978768874
  0.3848643640831880  0.6546618536869780  0.6263311178768889
  0.8848643640831885  0.1546618536869812  0.1263310978768877
  0.8848643640831885  0.1546618536869813  0.6263311178768894
  0.8848643640831886  0.6546618536869783  0.1263310978768872
  0.8848643640831885  0.6546618536869778  0.6263311178768889
  0.1187863085991703  0.1181435446084898  0.3957256283892593
  0.1187863085991705  0.1181435446084899  0.8957256283892615
  0.1187863085991701  0.6181435546084911  0.3957256283892596
  0.1187863085991704  0.6181435546084911  0.8957256283892614
  0.6187862885991708  0.1181435446084904  0.3957256283892596
  0.6187862885991716  0.1181435446084899  0.8957256283892613
  0.6187862885991710  0.6181435546084907  0.3957256283892593
  0.6187862885991715  0.6181435546084904  0.8957256283892616
  0.3687862885991714  0.3681435546084919  0.3957256283892593
  0.3687862885991712  0.3681435546084920  0.8957256283892614
  0.3687862885991717  0.8681435546084908  0.3957256283892593
  0.3687862885991713  0.8681435546084906  0.8957256283892614
  0.8687862885991711  0.3681435546084917  0.3957256283892593
  0.8687862885991712  0.3681435546084919  0.8957256283892615
  0.8687862885991707  0.8681435546084909  0.3957256283892596
  0.8687862885991716  0.8681435546084914  0.8957256283892616
  0.1125980799770642  0.3472848189849187  0.3760423999455465
  0.1125980799770642  0.3472848189849187  0.8760423699455464
  0.1125980799770639  0.8472848189849160  0.3760423999455463
  0.1125980799770638  0.8472848189849160  0.8760423699455461
  0.6125981099770623  0.3472848189849185  0.3760423999455464
  0.6125981099770621  0.3472848189849186  0.8760423699455459
  0.6125981099770623  0.8472848189849159  0.3760423999455464
  0.6125981099770623  0.8472848189849160  0.8760423699455463
  0.3625980799770636  0.0972848189849166  0.3760423999455463
  0.3625980799770630  0.0972848189849165  0.8760423699455456
  0.3625980799770635  0.5972848189849155  0.3760423999455462
  0.3625980799770629  0.5972848189849160  0.8760423699455457
  0.8625981099770622  0.0972848189849163  0.3760423999455464
  0.8625981099770622  0.0972848189849167  0.8760423699455466
  0.8625981099770623  0.5972848189849159  0.3760423999455465
  0.8625981099770621  0.5972848189849159  0.8760423699455464
  0.3554152097959754  0.1878183869469321  0.1275391774143286
  0.3554152097959785  0.1878183869469316  0.6275391574143251
  0.3554152097959762  0.6878183869469326  0.1275391774143278
  0.3554152097959786  0.6878183869469330  0.6275391574143256
  0.8554151797959739  0.1878183869469321  0.1275391774143267
  0.8554151797959759  0.1878183869469311  0.6275391574143260
  0.8554151797959743  0.6878183869469329  0.1275391774143275
  0.8554151797959741  0.6878183869469328  0.6275391574143255
  0.1054151797959772  0.4378183869469329  0.1275391774143287
  0.1054151797959795  0.4378183869469314  0.6275391574143264
  0.1054151797959788  0.9378183869469322  0.1275391774143270
  0.1054151797959784  0.9378183869469316  0.6275391574143250
  0.6054151797959736  0.4378183869469312  0.1275391774143268
  0.6054151797959761  0.4378183869469302  0.6275391574143248
  0.6054151797959731  0.9378183869469320  0.1275391774143291
  0.6054151797959756  0.9378183869469341  0.6275391574143251
  0.1658412966818230  0.4121368287522235  0.0964953481485367
  0.1658412966818230  0.4121368287522233  0.5964953681485358
  0.1658412966818232  0.9121368587522223  0.0964953481485363
  0.1658412966818223  0.9121368587522236  0.5964953681485381
  0.6658412666818190  0.4121368287522234  0.0964953481485359
  0.6658412666818181  0.4121368287522243  0.5964953681485367
  0.6658412666818198  0.9121368587522235  0.0964953481485363
  0.6658412666818196  0.9121368587522237  0.5964953681485358
  0.4158412966818235  0.1621368587522198  0.0964953481485364
  0.4158412966818226  0.1621368587522213  0.5964953681485379
  0.4158412966818233  0.6621368587522246  0.0964953481485360
  0.4158412966818225  0.6621368587522226  0.5964953681485369
  0.9158412666818188  0.1621368587522221  0.0964953481485358
  0.9158412666818184  0.1621368587522215  0.5964953681485375
  0.9158412666818213  0.6621368587522211  0.0964953481485366
  0.9158412666818190  0.6621368587522237  0.5964953681485377
  0.1534269346764769  0.3992602373251145  0.1650086980775812
  0.1534269346764746  0.3992602373251133  0.6650087080775776
  0.1534269346764772  0.8992602673251144  0.1650086980775792
  0.1534269346764768  0.8992602673251141  0.6650087080775778
  0.6534269446764772  0.3992602373251142  0.1650086980775797
  0.6534269446764789  0.3992602373251146  0.6650087080775806
  0.6534269446764801  0.8992602673251160  0.1650086980775816
  0.6534269446764798  0.8992602673251149  0.6650087080775794
  0.4034269446764789  0.1492602673251131  0.1650086980775826
  0.4034269446764782  0.1492602673251126  0.6650087080775774
  0.4034269446764780  0.6492602673251148  0.1650086980775800
  0.4034269446764784  0.6492602673251151  0.6650087080775785
  0.9034269446764778  0.1492602673251139  0.1650086980775805
  0.9034269446764781  0.1492602673251132  0.6650087080775789
  0.9034269446764768  0.6492602673251149  0.1650086980775807
  0.9034269446764777  0.6492602673251143  0.6650087080775771
  0.3251903406573991  0.0962539840456549  0.1389984563730305
  0.3251903406573997  0.0962539840456556  0.6389984563730320
  0.3251903406574002  0.5962539540456534  0.1389984563730306
  0.3251903406574003  0.5962539540456532  0.6389984563730339
  0.8251903406573973  0.0962539840456555  0.1389984563730314
  0.8251903406573984  0.0962539840456557  0.6389984563730324
  0.8251903406573967  0.5962539540456531  0.1389984563730306
  0.8251903406573972  0.5962539540456526  0.6389984563730310
  0.0751903436573983  0.3462539840456548  0.1389984563730317
  0.0751903436573980  0.3462539840456564  0.6389984563730314
  0.0751903436574005  0.8462539540456524  0.1389984563730308
  0.0751903436573994  0.8462539540456527  0.6389984563730324
  0.5751903406573973  0.3462539840456548  0.1389984563730303
  0.5751903406573985  0.3462539840456554  0.6389984563730347
  0.5751903406573982  0.8462539540456536  0.1389984563730306
  0.5751903406573987  0.8462539540456537  0.6389984563730322
  0.3799288750032258  0.0707668897566515  0.1097999728195448
  0.3799288750032248  0.0707668897566512  0.6097999828195469
  0.3799288750032234  0.5707668867566518  0.1097999728195450
  0.3799288750032247  0.5707668867566497  0.6097999828195456
  0.8799288750032253  0.0707668897566510  0.1097999728195463
  0.8799288750032247  0.0707668897566511  0.6097999828195454
  0.8799288750032247  0.5707668867566520  0.1097999728195447
  0.8799288750032250  0.5707668867566507  0.6097999828195466
  0.1299288760032258  0.3207668867566507  0.1097999728195451
  0.1299288760032243  0.3207668867566503  0.6097999828195462
  0.1299288760032245  0.8207668867566511  0.1097999728195455
  0.1299288760032241  0.8207668867566511  0.6097999828195461
  0.6299288750032247  0.3207668867566511  0.1097999728195461
  0.6299288750032249  0.3207668867566509  0.6097999828195453
  0.6299288750032249  0.8207668867566517  0.1097999728195450
  0.6299288750032255  0.8207668867566510  0.6097999828195454
  0.3356359923333021  0.1088911425250063  0.0751904542407052
  0.3356359923333009  0.1088911425250075  0.5751904282407034
  0.3356359923333024  0.6088911425250095  0.0751904542407041
  0.3356359923333009  0.6088911425250096  0.5751904282407039
  0.8356359923332968  0.1088911425250071  0.0751904542407046
  0.8356359923332966  0.1088911425250074  0.5751904282407024
  0.8356359923332963  0.6088911425250094  0.0751904542407053
  0.8356359923332963  0.6088911425250100  0.5751904282407022
  0.0856359943333007  0.3588911425250061  0.0751904542407049
  0.0856359943333016  0.3588911425250071  0.5751904282407031
  0.0856359943333015  0.8588911425250099  0.0751904542407034
  0.0856359943333013  0.8588911425250092  0.5751904282407033
  0.5856359923332961  0.3588911425250071  0.0751904542407055
  0.5856359923332961  0.3588911425250075  0.5751904282407018
  0.5856359923332972  0.8588911425250093  0.0751904542407067
  0.5856359923332961  0.8588911425250101  0.5751904282407021
  0.4467293787677716  0.3533860799942815  0.1303233006660685
  0.4467293787677716  0.3533860799942817  0.6303232886660717
  0.4467293787677715  0.8533860799942833  0.1303233006660704
  0.4467293787677715  0.8533860799942834  0.6303232886660715
  0.9467293787677705  0.3533860799942819  0.1303233006660688
  0.9467293787677703  0.3533860799942816  0.6303232886660709
  0.9467293787677709  0.8533860799942831  0.1303233006660691
  0.9467293787677705  0.8533860799942835  0.6303232886660718
  0.1967293787677714  0.1033860799942802  0.1303233006660692
  0.1967293787677715  0.1033860799942798  0.6303232886660717
  0.1967293787677723  0.6033860799942835  0.1303233006660685
  0.1967293787677714  0.6033860799942828  0.6303232886660718
  0.6967293787677706  0.1033860799942802  0.1303233006660687
  0.6967293787677709  0.1033860799942810  0.6303232886660712
  0.6967293787677710  0.6033860799942833  0.1303233006660691
  0.6967293787677696  0.6033860799942835  0.6303232886660711
  0.4107981393759108  0.3590682249014627  0.1865258589425589
  0.4107981393759103  0.3590682249014623  0.6865258399425581
  0.4107981393759108  0.8590682249014640  0.1865258589425592
  0.4107981393759116  0.8590682249014636  0.6865258399425584
  0.9107981093759060  0.3590682249014614  0.1865258589425597
  0.9107981093759069  0.3590682249014611  0.6865258399425580
  0.9107981093759062  0.8590682249014635  0.1865258589425587
  0.9107981093759064  0.8590682249014638  0.6865258399425572
  0.1607981093759080  0.1090682249014634  0.1865258589425582
  0.1607981093759100  0.1090682249014620  0.6865258399425577
  0.1607981093759094  0.6090682249014638  0.1865258589425594
  0.1607981093759087  0.6090682249014636  0.6865258399425568
  0.6607981093759061  0.1090682249014626  0.1865258589425588
  0.6607981093759071  0.1090682249014636  0.6865258399425577
  0.6607981093759066  0.6090682249014643  0.1865258589425592
  0.6607981093759064  0.6090682249014638  0.6865258399425578
  0.4463758536579593  0.4114113989532836  0.1616523370871794
  0.4463758536579591  0.4114113989532848  0.6616523670871793
  0.4463758536579592  0.9114113989532838  0.1616523370871794
  0.4463758536579596  0.9114113989532837  0.6616523670871799
  0.9463758236579604  0.4114113989532833  0.1616523370871796
  0.9463758236579600  0.4114113989532844  0.6616523670871792
  0.9463758236579601  0.9114113989532830  0.1616523370871797
  0.9463758236579597  0.9114113989532839  0.6616523670871798
  0.1963758206579611  0.1614113989532853  0.1616523370871794
  0.1963758206579604  0.1614113989532852  0.6616523670871799
  0.1963758206579595  0.6614113989532840  0.1616523370871792
  0.1963758206579609  0.6614113989532836  0.6616523670871801
  0.6963758236579598  0.1614113989532849  0.1616523370871790
  0.6963758236579601  0.1614113989532851  0.6616523670871802
  0.6963758236579610  0.6614113989532838  0.1616523370871793
  0.6963758236579594  0.6614113989532840  0.6616523670871806
  0.1189920234869799  0.1180095451910073  0.0865012725127648
  0.1189920234869789  0.1180095451910072  0.5865012925127625
  0.1189920234869793  0.6180095131910061  0.0865012725127642
  0.1189920234869791  0.6180095131910057  0.5865012925127641
  0.6189920234869781  0.1180095451910074  0.0865012725127638
  0.6189920234869782  0.1180095451910076  0.5865012925127631
  0.6189920234869783  0.6180095131910065  0.0865012725127642
  0.6189920234869793  0.6180095131910059  0.5865012925127632
  0.3689920234869793  0.3680095431910075  0.0865012725127645
  0.3689920234869787  0.3680095431910086  0.5865012925127630
  0.3689920234869793  0.8680095131910063  0.0865012725127653
  0.3689920234869787  0.8680095131910051  0.5865012925127637
  0.8689920234869781  0.3680095431910085  0.0865012725127650
  0.8689920234869789  0.3680095431910081  0.5865012925127637
  0.8689920234869782  0.8680095131910056  0.0865012725127634
  0.8689920234869787  0.8680095131910059  0.5865012925127633
  0.3785609168355037  0.4361808644290260  0.1062923921123002
  0.3785609168355048  0.4361808644290244  0.6062924121122982
  0.3785609168355039  0.9361808944290293  0.1062923921123005
  0.3785609168355050  0.9361808944290284  0.6062924121122992
  0.8785608868355068  0.4361808644290249  0.1062923921122998
  0.8785608868355070  0.4361808644290248  0.6062924121122986
  0.8785608868355066  0.9361808944290291  0.1062923921123005
  0.8785608868355061  0.9361808944290273  0.6062924121122995
  0.1285608858355048  0.1861808904290249  0.1062923921123000
  0.1285608858355043  0.1861808904290250  0.6062924121122982
  0.1285608858355052  0.6861808944290293  0.1062923921123001
  0.1285608858355049  0.6861808944290275  0.6062924121122992
  0.6285608868355061  0.1861808904290251  0.1062923921123011
  0.6285608868355060  0.1861808904290245  0.6062924121122997
  0.6285608868355060  0.6861808944290291  0.1062923921123003
  0.6285608868355064  0.6861808944290282  0.6062924121122978
  0.0874078086839510  0.1427714766809731  0.1461239193271679
  0.0874078086839520  0.1427714766809726  0.6461239193271646
  0.0874078086839515  0.6427714766809746  0.1461239193271681
  0.0874078086839511  0.6427714766809746  0.6461239193271648
  0.5874077986839494  0.1427714766809724  0.1461239193271672
  0.5874077986839497  0.1427714766809726  0.6461239193271651
  0.5874077986839492  0.6427714766809738  0.1461239193271684
  0.5874077986839493  0.6427714766809746  0.6461239193271643
  0.3374077986839498  0.3927714766809736  0.1461239193271665
  0.3374077986839508  0.3927714766809735  0.6461239193271648
  0.3374077986839510  0.8927714766809741  0.1461239193271678
  0.3374077986839512  0.8927714766809745  0.6461239193271642
  0.8374077986839499  0.3927714766809730  0.1461239193271680
  0.8374077986839497  0.3927714766809735  0.6461239193271648
  0.8374077986839501  0.8927714766809747  0.1461239193271685
  0.8374077986839494  0.8927714766809728  0.6461239193271653
  0.3245980727804639  0.3820356144169250  0.3271272559128785
  0.3245980727804672  0.3820356144169252  0.8271272859128794
  0.3245980727804660  0.8820355844169283  0.3271272559128777
  0.3245980727804659  0.8820355844169304  0.8271272859128799
  0.8245980727804598  0.3820356144169247  0.3271272559128777
  0.8245980727804605  0.3820356144169271  0.8271272859128794
  0.8245980727804588  0.8820355844169281  0.3271272559128779
  0.8245980727804612  0.8820355844169292  0.8271272859128797
  0.0745980727804643  0.1320355844169282  0.3271272559128776
  0.0745980727804656  0.1320355844169273  0.8271272859128791
  0.0745980727804640  0.6320355844169288  0.3271272559128779
  0.0745980727804652  0.6320355844169298  0.8271272859128789
  0.5745980727804602  0.1320355844169273  0.3271272559128778
  0.5745980727804618  0.1320355844169288  0.8271272859128784
  0.5745980727804606  0.6320355844169282  0.3271272559128773
  0.5745980727804616  0.6320355844169296  0.8271272859128774
  0.3218719773396440  0.4346676951035600  0.3684922427895601
  0.3218719773396445  0.4346676951035591  0.8684922127895599
  0.3218719773396443  0.9346676951035553  0.3684922427895597
  0.3218719773396441  0.9346676951035565  0.8684922127895599
  0.8218719773396400  0.4346676951035597  0.3684922427895596
  0.8218719773396395  0.4346676951035586  0.8684922127895592
  0.8218719773396390  0.9346676951035566  0.3684922427895597
  0.8218719773396399  0.9346676951035552  0.8684922127895606
  0.0718719803396432  0.1846676951035572  0.3684922427895601
  0.0718719803396437  0.1846676951035584  0.8684922127895600
  0.0718719803396433  0.6846676951035557  0.3684922427895591
  0.0718719803396430  0.6846676951035559  0.8684922127895601
  0.5718719773396387  0.1846676951035565  0.3684922427895592
  0.5718719773396409  0.1846676951035574  0.8684922127895605
  0.5718719773396391  0.6846676951035559  0.3684922427895597
  0.5718719773396406  0.6846676951035563  0.8684922127895600
  0.2865196725649422  0.3795785532960745  0.3817715839712994
  0.2865196725649417  0.3795785532960743  0.8817715539712969
  0.2865196725649419  0.8795785232960720  0.3817715839712993
  0.2865196725649419  0.8795785232960716  0.8817715539712968
  0.7865197025649423  0.3795785532960733  0.3817715839712995
  0.7865197025649419  0.3795785532960741  0.8817715539712966
  0.7865197025649420  0.8795785232960714  0.3817715839713003
  0.7865197025649417  0.8795785232960713  0.8817715539712973
  0.0365197055649417  0.1295785202960731  0.3817715839712995
  0.0365197055649419  0.1295785202960733  0.8817715539712976
  0.0365197055649417  0.6295785232960699  0.3817715839713001
  0.0365197055649411  0.6295785232960727  0.8817715539712970
  0.5365197025649422  0.1295785202960728  0.3817715839712997
  0.5365197025649417  0.1295785202960727  0.8817715539712963
  0.5365197025649416  0.6295785232960720  0.3817715839712983
  0.5365197025649410  0.6295785232960710  0.8817715539712974
  0.1169239640841540  0.1321608442412832  0.4364898886844610
  0.1169239640841549  0.1321608442412833  0.9364898886844621
  0.1169239640841546  0.6321608542412838  0.4364898886844622
  0.1169239640841556  0.6321608542412838  0.9364898886844600
  0.6169239640841563  0.1321608442412816  0.4364898886844610
  0.6169239640841560  0.1321608442412832  0.9364898886844617
  0.6169239640841575  0.6321608542412831  0.4364898886844613
  0.6169239640841557  0.6321608542412831  0.9364898886844613
  0.3669239640841577  0.3821608542412835  0.4364898886844612
  0.3669239640841582  0.3821608542412836  0.9364898886844609
  0.3669239640841583  0.8821608542412828  0.4364898886844600
  0.3669239640841588  0.8821608542412840  0.9364898886844621
  0.8669239640841565  0.3821608542412824  0.4364898886844619
  0.8669239640841567  0.3821608542412838  0.9364898886844611
  0.8669239640841561  0.8821608542412827  0.4364898886844622
  0.8669239640841566  0.8821608542412829  0.9364898886844605
  0.1570672171696369  0.1311452428699222  0.3778630129531793
  0.1570672171696356  0.1311452428699231  0.8778630129531829
  0.1570672171696376  0.6311452168699200  0.3778630129531800
  0.1570672171696364  0.6311452168699213  0.8778630129531841
  0.6570672171696348  0.1311452428699223  0.3778630129531805
  0.6570672171696339  0.1311452428699227  0.8778630129531838
  0.6570672171696346  0.6311452168699178  0.3778630129531784
  0.6570672171696343  0.6311452168699204  0.8778630129531840
  0.4070672171696383  0.3811452468699233  0.3778630129531791
  0.4070672171696374  0.3811452468699240  0.8778630129531833
  0.4070672171696380  0.8811452768699186  0.3778630129531805
  0.4070672171696377  0.8811452768699208  0.8778630129531839
  0.9070672171696347  0.3811452468699234  0.3778630129531804
  0.9070672171696339  0.3811452468699236  0.8778630129531831
  0.9070672171696347  0.8811452768699197  0.3778630129531799
  0.9070672171696343  0.8811452768699208  0.8778630129531835
  0.3647329163951560  0.3240831358814040  0.3933954780033318
  0.3647329163951564  0.3240831358814032  0.8933955080033323
  0.3647329163951559  0.8240831358814081  0.3933954780033309
  0.3647329163951555  0.8240831358814060  0.8933955080033319
  0.8647329163951523  0.3240831358814040  0.3933954780033318
  0.8647329163951519  0.3240831358814034  0.8933955080033315
  0.8647329163951517  0.8240831358814058  0.3933954780033316
  0.8647329163951515  0.8240831358814052  0.8933955080033307
  0.1147329163951553  0.0740831358814046  0.3933954780033293
  0.1147329163951548  0.0740831358814052  0.8933955080033309
  0.1147329163951549  0.5740831358814072  0.3933954780033317
  0.1147329163951557  0.5740831358814057  0.8933955080033320
  0.6147329163951516  0.0740831358814037  0.3933954780033329
  0.6147329163951513  0.0740831358814053  0.8933955080033318
  0.6147329163951519  0.5740831358814057  0.3933954780033296
  0.6147329163951523  0.5740831358814051  0.8933955080033301
  0.3838294219217038  0.1734775038101735  0.4061042036069623
  0.3838294219217037  0.1734775038101727  0.9061042036069612
  0.3838294219217038  0.6734775078101741  0.4061042036069614
  0.3838294219217031  0.6734775078101733  0.9061042036069608
  0.8838294219217052  0.1734775038101725  0.4061042036069617
  0.8838294219217039  0.1734775038101728  0.9061042036069614
  0.8838294219217040  0.6734775078101740  0.4061042036069625
  0.8838294219217032  0.6734775078101730  0.9061042036069615
  0.1338294219217045  0.4234775078101728  0.4061042036069627
  0.1338294219217052  0.4234775078101727  0.9061042036069618
  0.1338294219217055  0.9234775078101740  0.4061042036069614
  0.1338294219217058  0.9234775078101729  0.9061042036069613
  0.6338294219217038  0.4234775078101720  0.4061042036069617
  0.6338294219217044  0.4234775078101716  0.9061042036069609
  0.6338294219217055  0.9234775078101751  0.4061042036069614
  0.6338294219217057  0.9234775078101735  0.9061042036069609
  0.3390701656010849  0.1771608121346371  0.3570622897293132
  0.3390701656010852  0.1771608121346372  0.8570623197293074
  0.3390701656010841  0.6771608321346378  0.3570622897293136
  0.3390701656010854  0.6771608321346373  0.8570623197293071
  0.8390701656010845  0.1771608121346375  0.3570622897293136
  0.8390701656010849  0.1771608121346373  0.8570623197293068
  0.8390701656010849  0.6771608321346385  0.3570622897293134
  0.8390701656010848  0.6771608321346371  0.8570623197293078
  0.0890701656010858  0.4271608321346384  0.3570622897293134
  0.0890701656010856  0.4271608321346398  0.8570623197293069
  0.0890701656010850  0.9271608321346383  0.3570622897293133
  0.0890701656010854  0.9271608321346375  0.8570623197293062
  0.5890701656010847  0.4271608321346382  0.3570622897293132
  0.5890701656010841  0.4271608321346380  0.8570623197293066
  0.5890701656010847  0.9271608321346373  0.3570622897293141
  0.5890701656010845  0.9271608321346377  0.8570623197293067
  0.4045321935009770  0.1631876914144084  0.3437528266560725
  0.4045321935009776  0.1631876914144095  0.8437528266560698
  0.4045321935009772  0.6631877034144087  0.3437528266560725
  0.4045321935009762  0.6631877034144081  0.8437528266560698
  0.9045321935009780  0.1631876914144088  0.3437528266560727
  0.9045321935009800  0.1631876914144092  0.8437528266560704
  0.9045321935009796  0.6631877034144090  0.3437528266560724
  0.9045321935009795  0.6631877034144086  0.8437528266560689
  0.1545321965009785  0.4131877034144079  0.3437528266560719
  0.1545321965009793  0.4131877034144087  0.8437528266560702
  0.1545321965009787  0.9131877034144087  0.3437528266560728
  0.1545321965009784  0.9131877034144084  0.8437528266560703
  0.6545321935009785  0.4131877034144078  0.3437528266560718
  0.6545321935009792  0.4131877034144077  0.8437528266560699
  0.6545321935009792  0.9131877034144084  0.3437528266560724
  0.6545321935009787  0.9131877034144087  0.8437528266560699
  0.0786595533710719  0.3421168013945740  0.4029977787655610
  0.0786595533710707  0.3421168013945740  0.9029977787655595
  0.0786595533710720  0.8421168013945751  0.4029977787655608
  0.0786595533710721  0.8421168013945746  0.9029977787655591
  0.5786595833710727  0.3421168013945743  0.4029977787655605
  0.5786595833710726  0.3421168013945725  0.9029977787655592
  0.5786595833710725  0.8421168013945749  0.4029977787655609
  0.5786595833710728  0.8421168013945746  0.9029977787655593
  0.3286595533710714  0.0921168013945739  0.4029977787655611
  0.3286595533710719  0.0921168013945738  0.9029977787655592
  0.3286595533710713  0.5921168013945749  0.4029977787655595
  0.3286595533710719  0.5921168013945759  0.9029977787655592
  0.8286595833710726  0.0921168013945740  0.4029977787655609
  0.8286595833710728  0.0921168013945734  0.9029977787655593
  0.8286595833710726  0.5921168013945761  0.4029977787655608
  0.8286595833710720  0.5921168013945746  0.9029977787655592
  0.1492748328372200  0.3278443425620601  0.3911385552883844
  0.1492748328372201  0.3278443425620609  0.8911385552883844
  0.1492748328372196  0.8278443425620607  0.3911385552883834
  0.1492748328372201  0.8278443425620609  0.8911385552883848
  0.6492748328372211  0.3278443425620595  0.3911385552883839
  0.6492748328372228  0.3278443425620601  0.8911385552883838
  0.6492748328372220  0.8278443425620612  0.3911385552883834
  0.6492748328372216  0.8278443425620607  0.8911385552883841
  0.3992748328372211  0.0778443425620592  0.3911385552883836
  0.3992748328372202  0.0778443425620596  0.8911385552883849
  0.3992748328372198  0.5778443425620609  0.3911385552883838
  0.3992748328372208  0.5778443425620604  0.8911385552883838
  0.8992748328372203  0.0778443425620592  0.3911385552883829
  0.8992748328372220  0.0778443425620594  0.8911385552883840
  0.8992748328372211  0.5778443425620605  0.3911385552883836
  0.8992748328372218  0.5778443425620602  0.8911385552883840
  0.3523369085646292  0.0808239363602557  0.3373819533451558
  0.3523369085646273  0.0808239363602563  0.8373819533451572
  0.3523369085646270  0.5808239463602545  0.3373819533451546
  0.3523369085646271  0.5808239463602548  0.8373819533451570
  0.8523369085646254  0.0808239363602551  0.3373819533451554
  0.8523369085646250  0.0808239363602553  0.8373819533451563
  0.8523369085646259  0.5808239463602544  0.3373819533451564
  0.8523369085646255  0.5808239463602548  0.8373819533451571
  0.1023369115646260  0.3308239463602545  0.3373819533451559
  0.1023369115646264  0.3308239463602546  0.8373819533451564
  0.1023369115646259  0.8308239463602545  0.3373819533451562
  0.1023369115646254  0.8308239463602538  0.8373819533451566
  0.6023369085646254  0.3308239463602550  0.3373819533451555
  0.6023369085646249  0.3308239463602543  0.8373819533451565
  0.6023369085646261  0.8308239463602548  0.3373819533451561
  0.6023369085646247  0.8308239463602545  0.8373819533451561
  0.9914133853826110  0.0027858351369091  0.1209744898297327
  0.9914133853826108  0.0027858351369091  0.6209744898297319
  0.9914133853826110  0.5027858351369120  0.1209744898297327
  0.9914133853826108  0.5027858351369120  0.6209744898297319
  0.4914133853826121  0.0027858351369091  0.1209744898297329
  0.4914133853826121  0.0027858351369091  0.6209744898297319
  0.4914133853826121  0.5027858351369120  0.1209744898297327
  0.4914133853826121  0.5027858351369120  0.6209744898297319
  0.2414133853826122  0.2527858351369117  0.1209744898297327
  0.2414133853826122  0.2527858351369118  0.6209744898297319
  0.2414133853826122  0.7527858351369092  0.1209744898297329
  0.2414133853826120  0.7527858351369090  0.6209744898297319
  0.7414133853826111  0.2527858351369118  0.1209744898297327
  0.7414133853826111  0.2527858351369118  0.6209744898297319
  0.7414133853826111  0.7527858351369090  0.1209744898297329
  0.7414133853826111  0.7527858351369090  0.6209744898297319
  0.9925234972681812  0.9824196277367340  0.3690946846793384
  0.9925234972681811  0.9824196277367340  0.8690946846793376
  0.9925234972681811  0.4824196288367355  0.3690946846793384
  0.9925234972681812  0.4824196288367355  0.8690946846793376
  0.4925234972681813  0.9824196277367342  0.3690946846793384
  0.4925234972681813  0.9824196277367339  0.8690946846793377
  0.4925234972681813  0.4824196288367356  0.3690946846793384
  0.4925234972681813  0.4824196288367355  0.8690946846793377
  0.2425234972681783  0.2324196288367349  0.3690946846793384
  0.2425234972681784  0.2324196288367350  0.8690946846793376
  0.2425234972681782  0.7324196288367338  0.3690946846793384
  0.2425234972681783  0.7324196288367337  0.8690946846793377
  0.7425234972681812  0.2324196288367349  0.3690946846793384
  0.7425234972681812  0.2324196288367349  0.8690946846793377
  0.7425234972681812  0.7324196288367339  0.3690946846793384
  0.7425234972681812  0.7324196288367337  0.8690946846793376
  0.2457019961792185  0.0170028344698034  0.3724766199770730
  0.2457019961792184  0.0170028344698034  0.8724766199770723
  0.2457019961792184  0.5170028364698028  0.3724766199770730
  0.2457019961792184  0.5170028364698027  0.8724766199770723
  0.7457019961792187  0.0170028344698036  0.3724766199770730
  0.7457019961792186  0.0170028344698034  0.8724766199770723